%%MatrixMarket matrix coordinate integer general
%
250 80 18340
1 1 10
2 1 14
3 1 14
4 1 16
5 1 11
6 1 3
7 1 2
8 1 4
9 1 1
10 1 2
11 1 3
13 1 2
14 1 2
15 1 3
16 1 5
17 1 5
18 1 2
19 1 3
20 1 1
22 1 1
24 1 3
25 1 1
26 1 2
28 1 5
30 1 4
31 1 4
32 1 3
33 1 1
34 1 1
35 1 1
36 1 3
37 1 2
38 1 5
40 1 1
41 1 4
42 1 2
43 1 4
44 1 1
45 1 2
46 1 1
47 1 3
48 1 2
50 1 3
51 1 1
52 1 2
53 1 3
54 1 2
55 1 2
56 1 2
57 1 2
58 1 2
59 1 5
61 1 3
62 1 3
63 1 6
64 1 2
65 1 2
66 1 3
67 1 5
68 1 1
69 1 2
71 1 1
72 1 1
73 1 1
74 1 3
75 1 3
76 1 3
77 1 2
78 1 3
79 1 1
80 1 3
81 1 1
82 1 3
83 1 3
84 1 2
85 1 4
86 1 2
87 1 2
88 1 6
89 1 1
90 1 1
91 1 2
92 1 5
93 1 2
94 1 1
95 1 6
96 1 5
97 1 5
98 1 2
99 1 3
100 1 5
101 1 2
102 1 2
103 1 2
104 1 4
106 1 4
107 1 1
108 1 2
109 1 1
110 1 3
111 1 3
113 1 3
114 1 1
115 1 4
116 1 4
117 1 5
118 1 4
119 1 2
120 1 3
121 1 2
122 1 4
123 1 3
124 1 3
125 1 2
126 1 3
127 1 2
128 1 3
129 1 2
130 1 2
131 1 1
132 1 3
133 1 4
134 1 5
135 1 2
136 1 2
137 1 1
138 1 4
139 1 1
140 1 4
141 1 4
142 1 1
143 1 4
144 1 3
145 1 3
146 1 3
147 1 1
148 1 3
149 1 1
150 1 5
151 1 2
152 1 2
153 1 1
154 1 1
155 1 2
156 1 3
157 1 3
158 1 2
159 1 2
160 1 2
162 1 1
163 1 2
164 1 1
166 1 3
167 1 2
168 1 3
169 1 4
170 1 7
171 1 2
172 1 4
173 1 5
174 1 2
175 1 3
176 1 4
178 1 2
179 1 1
180 1 1
181 1 4
182 1 5
183 1 4
184 1 3
185 1 2
186 1 6
187 1 3
188 1 5
189 1 4
190 1 3
191 1 3
192 1 3
193 1 1
194 1 3
195 1 4
196 1 3
197 1 4
198 1 2
199 1 5
200 1 4
202 1 2
203 1 1
204 1 4
205 1 2
206 1 1
207 1 1
210 1 3
211 1 3
212 1 2
213 1 4
214 1 2
216 1 2
219 1 1
220 1 3
223 1 3
224 1 6
226 1 2
227 1 4
228 1 4
229 1 3
230 1 4
231 1 2
233 1 2
235 1 2
236 1 1
237 1 3
238 1 2
239 1 5
240 1 1
241 1 2
242 1 2
243 1 5
244 1 2
245 1 3
246 1 3
247 1 2
248 1 2
249 1 3
1 2 6
2 2 9
3 2 4
4 2 8
5 2 4
6 2 4
7 2 2
8 2 6
9 2 2
10 2 3
11 2 4
12 2 1
13 2 1
14 2 5
15 2 7
16 2 3
17 2 6
18 2 3
19 2 1
21 2 2
22 2 2
23 2 3
24 2 2
25 2 2
27 2 1
28 2 3
29 2 2
30 2 1
31 2 4
32 2 4
33 2 2
34 2 2
35 2 4
36 2 3
37 2 1
38 2 4
39 2 1
40 2 1
41 2 2
42 2 5
43 2 3
44 2 1
45 2 1
46 2 1
47 2 3
48 2 4
49 2 2
50 2 2
52 2 1
53 2 1
54 2 5
55 2 5
56 2 3
57 2 4
58 2 4
59 2 4
60 2 2
61 2 2
62 2 3
63 2 4
64 2 2
65 2 4
66 2 2
67 2 2
69 2 5
70 2 3
71 2 2
72 2 6
73 2 2
74 2 4
75 2 1
76 2 2
77 2 2
78 2 1
79 2 2
80 2 3
81 2 2
82 2 1
83 2 3
84 2 2
85 2 6
86 2 3
87 2 5
88 2 3
89 2 3
90 2 3
93 2 2
94 2 1
95 2 1
96 2 3
97 2 3
98 2 3
99 2 2
100 2 3
101 2 6
102 2 1
103 2 2
104 2 5
105 2 3
106 2 5
107 2 1
108 2 3
109 2 3
110 2 5
111 2 4
112 2 4
113 2 2
114 2 3
116 2 1
117 2 4
118 2 3
120 2 2
121 2 3
122 2 1
123 2 2
124 2 5
125 2 2
127 2 5
128 2 6
129 2 2
130 2 4
131 2 2
133 2 1
134 2 2
135 2 4
136 2 3
137 2 5
138 2 2
139 2 2
140 2 2
141 2 3
142 2 3
143 2 2
144 2 1
145 2 2
146 2 5
147 2 11
148 2 4
149 2 2
150 2 3
151 2 4
152 2 3
153 2 2
154 2 3
155 2 2
156 2 1
157 2 1
158 2 3
159 2 1
160 2 1
161 2 1
162 2 2
163 2 3
165 2 1
166 2 1
167 2 3
168 2 4
169 2 3
170 2 3
171 2 3
172 2 1
173 2 1
174 2 1
175 2 3
176 2 4
177 2 1
178 2 3
179 2 5
180 2 1
181 2 1
182 2 1
184 2 4
185 2 3
186 2 3
187 2 4
188 2 5
189 2 3
190 2 4
191 2 3
192 2 4
193 2 1
194 2 2
195 2 2
196 2 4
197 2 6
198 2 4
199 2 3
200 2 2
201 2 1
202 2 1
203 2 5
204 2 2
205 2 3
206 2 2
207 2 3
208 2 3
209 2 1
210 2 2
211 2 3
212 2 1
214 2 2
215 2 1
216 2 4
217 2 1
218 2 4
219 2 4
220 2 1
221 2 6
222 2 1
223 2 2
224 2 1
225 2 4
226 2 3
227 2 2
228 2 1
229 2 6
230 2 4
231 2 3
232 2 2
233 2 2
234 2 3
235 2 2
236 2 2
237 2 1
239 2 4
240 2 3
241 2 3
242 2 3
243 2 1
244 2 1
245 2 1
246 2 2
247 2 1
249 2 1
250 2 4
1 3 6
2 3 9
3 3 12
4 3 20
5 3 12
6 3 2
7 3 3
8 3 2
9 3 2
10 3 4
11 3 2
12 3 5
13 3 1
14 3 2
15 3 3
16 3 3
17 3 2
18 3 3
19 3 3
20 3 1
21 3 1
23 3 1
25 3 1
26 3 4
27 3 1
28 3 3
29 3 1
30 3 1
31 3 4
32 3 2
33 3 1
34 3 5
35 3 2
36 3 4
37 3 2
38 3 3
39 3 4
40 3 5
41 3 4
42 3 2
43 3 1
44 3 3
45 3 2
46 3 1
47 3 5
48 3 3
49 3 2
50 3 4
51 3 2
52 3 1
53 3 3
54 3 3
55 3 7
56 3 3
57 3 3
58 3 3
59 3 2
60 3 4
61 3 3
63 3 1
64 3 3
66 3 1
68 3 3
69 3 5
70 3 3
71 3 1
72 3 1
73 3 1
74 3 3
75 3 1
76 3 2
77 3 3
78 3 3
79 3 1
81 3 2
82 3 5
83 3 1
84 3 3
85 3 2
86 3 2
88 3 4
89 3 4
90 3 1
91 3 3
92 3 1
93 3 2
95 3 3
96 3 3
97 3 3
98 3 3
100 3 5
101 3 4
102 3 4
104 3 2
106 3 2
107 3 4
108 3 2
109 3 2
110 3 3
111 3 1
113 3 4
114 3 6
115 3 5
117 3 1
118 3 1
119 3 2
120 3 1
121 3 2
122 3 5
123 3 2
124 3 4
125 3 3
126 3 1
127 3 7
128 3 5
129 3 1
130 3 2
131 3 2
132 3 3
133 3 2
134 3 4
135 3 4
136 3 2
137 3 3
138 3 2
140 3 2
141 3 2
142 3 3
143 3 3
144 3 1
146 3 2
147 3 1
148 3 2
149 3 2
150 3 1
151 3 2
152 3 1
153 3 3
154 3 4
155 3 4
156 3 3
157 3 1
158 3 1
159 3 1
160 3 1
161 3 5
162 3 1
164 3 2
165 3 3
167 3 5
168 3 1
169 3 4
170 3 5
171 3 2
172 3 3
174 3 1
175 3 5
176 3 3
177 3 4
179 3 4
180 3 1
181 3 2
184 3 1
185 3 1
186 3 2
187 3 4
188 3 4
189 3 2
190 3 1
191 3 2
192 3 1
193 3 4
194 3 3
195 3 3
196 3 2
197 3 5
200 3 2
201 3 2
202 3 1
203 3 4
205 3 3
207 3 3
208 3 2
209 3 1
210 3 2
211 3 1
212 3 3
213 3 2
214 3 2
215 3 4
216 3 1
217 3 2
218 3 3
219 3 2
220 3 1
221 3 3
222 3 1
223 3 2
224 3 1
225 3 5
226 3 3
227 3 2
228 3 6
229 3 2
230 3 3
231 3 3
232 3 2
233 3 6
234 3 3
235 3 3
236 3 1
237 3 2
238 3 2
239 3 3
240 3 2
241 3 2
242 3 3
243 3 2
244 3 1
245 3 2
246 3 1
248 3 1
249 3 3
250 3 1
1 4 14
2 4 13
3 4 14
4 4 5
5 4 11
6 4 1
7 4 3
8 4 3
9 4 3
10 4 3
11 4 2
12 4 1
13 4 3
15 4 3
16 4 2
17 4 1
18 4 3
19 4 2
20 4 3
21 4 3
22 4 1
23 4 3
24 4 6
25 4 2
26 4 2
27 4 2
28 4 7
29 4 3
30 4 1
31 4 3
32 4 2
33 4 4
34 4 2
35 4 1
36 4 4
37 4 2
38 4 1
39 4 1
40 4 1
41 4 3
43 4 1
44 4 2
45 4 1
46 4 5
47 4 2
48 4 5
49 4 2
50 4 3
51 4 4
52 4 2
53 4 4
54 4 1
55 4 5
56 4 1
57 4 3
58 4 4
60 4 4
61 4 2
62 4 3
63 4 1
64 4 3
65 4 4
67 4 1
68 4 1
69 4 2
70 4 3
71 4 1
72 4 4
73 4 1
74 4 2
75 4 6
76 4 3
77 4 2
78 4 1
79 4 2
80 4 4
81 4 3
82 4 1
83 4 3
85 4 2
87 4 1
88 4 1
89 4 4
90 4 1
91 4 1
92 4 1
93 4 1
95 4 3
96 4 3
97 4 1
98 4 5
99 4 6
102 4 3
103 4 3
104 4 2
105 4 3
106 4 2
107 4 3
108 4 3
109 4 3
110 4 4
111 4 1
112 4 2
114 4 2
115 4 2
116 4 1
117 4 3
118 4 2
120 4 2
121 4 3
122 4 1
123 4 4
124 4 5
125 4 6
126 4 3
127 4 2
128 4 1
130 4 1
131 4 3
132 4 1
133 4 1
134 4 4
135 4 3
136 4 3
137 4 4
138 4 4
139 4 3
140 4 3
141 4 6
142 4 6
143 4 3
144 4 4
145 4 2
146 4 3
147 4 4
148 4 5
149 4 4
151 4 2
152 4 1
153 4 2
154 4 4
155 4 2
156 4 4
157 4 1
158 4 3
159 4 2
160 4 1
162 4 3
163 4 1
165 4 4
166 4 5
167 4 3
168 4 8
169 4 2
170 4 5
172 4 2
173 4 4
174 4 5
175 4 2
177 4 3
178 4 3
179 4 2
180 4 4
181 4 2
183 4 3
184 4 1
185 4 3
186 4 4
187 4 1
188 4 2
189 4 1
190 4 4
191 4 4
192 4 1
193 4 2
194 4 3
195 4 3
196 4 1
197 4 3
198 4 2
199 4 5
200 4 1
201 4 2
202 4 4
203 4 3
204 4 4
205 4 2
206 4 5
207 4 3
208 4 4
211 4 3
212 4 3
213 4 4
214 4 2
215 4 2
216 4 6
217 4 1
218 4 5
219 4 3
220 4 6
221 4 2
222 4 4
223 4 5
225 4 6
226 4 2
227 4 1
228 4 2
229 4 3
230 4 5
231 4 1
233 4 4
234 4 1
235 4 1
236 4 3
237 4 1
239 4 2
240 4 2
241 4 2
242 4 1
243 4 2
244 4 6
245 4 1
246 4 1
247 4 3
248 4 1
249 4 3
250 4 4
1 5 15
2 5 14
3 5 8
4 5 16
5 5 10
6 5 4
8 5 1
9 5 2
10 5 2
11 5 3
12 5 1
13 5 4
14 5 4
16 5 1
17 5 3
18 5 2
19 5 1
20 5 2
21 5 2
22 5 6
23 5 4
24 5 1
25 5 1
26 5 1
28 5 1
29 5 5
30 5 1
31 5 2
32 5 2
33 5 3
34 5 1
35 5 4
36 5 5
37 5 3
38 5 1
40 5 1
41 5 2
42 5 5
43 5 2
44 5 3
45 5 2
46 5 1
47 5 5
48 5 2
49 5 1
50 5 1
51 5 1
53 5 4
54 5 3
55 5 8
56 5 2
57 5 4
58 5 1
59 5 1
61 5 5
62 5 3
63 5 2
65 5 3
66 5 2
67 5 1
68 5 3
69 5 1
70 5 3
71 5 3
72 5 2
74 5 1
76 5 4
77 5 1
79 5 2
80 5 3
81 5 3
82 5 2
83 5 2
84 5 3
85 5 4
86 5 1
87 5 1
88 5 2
89 5 2
90 5 1
91 5 3
92 5 1
93 5 2
94 5 1
96 5 2
97 5 3
98 5 3
99 5 4
100 5 3
101 5 2
102 5 5
103 5 2
104 5 1
105 5 1
106 5 3
107 5 2
108 5 4
109 5 1
111 5 3
112 5 1
113 5 2
114 5 1
115 5 1
116 5 2
117 5 3
118 5 1
119 5 7
120 5 4
121 5 5
122 5 2
123 5 1
124 5 1
125 5 3
126 5 1
127 5 2
128 5 3
130 5 1
131 5 3
132 5 1
133 5 2
134 5 2
135 5 3
136 5 2
137 5 3
138 5 2
139 5 3
140 5 4
141 5 5
142 5 3
143 5 3
144 5 5
145 5 2
146 5 1
147 5 1
148 5 1
149 5 5
150 5 4
151 5 1
152 5 3
153 5 1
154 5 2
155 5 3
156 5 1
157 5 1
158 5 3
159 5 1
160 5 4
161 5 2
162 5 5
163 5 2
164 5 1
165 5 7
166 5 3
167 5 2
168 5 7
169 5 3
170 5 2
171 5 2
172 5 3
173 5 2
174 5 6
175 5 2
176 5 4
177 5 1
178 5 2
179 5 3
180 5 3
181 5 5
182 5 2
183 5 1
184 5 2
185 5 3
186 5 2
187 5 7
188 5 4
189 5 1
191 5 4
192 5 4
193 5 5
194 5 4
195 5 1
196 5 2
197 5 3
199 5 7
200 5 3
201 5 2
202 5 4
203 5 3
204 5 1
205 5 3
206 5 2
207 5 1
208 5 2
210 5 4
211 5 3
212 5 4
213 5 5
214 5 2
215 5 1
216 5 2
217 5 3
218 5 3
219 5 6
220 5 2
221 5 3
222 5 4
223 5 1
224 5 1
225 5 1
226 5 1
227 5 3
228 5 4
229 5 1
230 5 2
231 5 2
232 5 1
233 5 3
234 5 1
235 5 2
236 5 4
237 5 1
238 5 3
239 5 2
240 5 1
241 5 1
242 5 2
243 5 2
244 5 4
245 5 4
246 5 4
247 5 1
248 5 3
249 5 2
250 5 2
1 6 14
2 6 6
3 6 5
4 6 11
5 6 9
6 6 2
7 6 6
9 6 2
10 6 4
11 6 1
12 6 1
13 6 2
14 6 2
15 6 1
16 6 2
17 6 5
18 6 4
20 6 4
22 6 3
24 6 3
25 6 2
26 6 2
27 6 4
28 6 4
29 6 1
31 6 4
32 6 2
33 6 1
34 6 7
35 6 6
37 6 2
38 6 2
39 6 1
41 6 1
42 6 3
43 6 2
44 6 1
45 6 2
46 6 6
47 6 5
48 6 3
49 6 2
50 6 4
51 6 1
53 6 1
54 6 3
55 6 3
56 6 1
57 6 2
58 6 3
59 6 7
60 6 6
61 6 2
62 6 7
63 6 1
64 6 4
65 6 2
66 6 1
68 6 2
71 6 5
72 6 4
73 6 1
74 6 2
75 6 1
76 6 2
77 6 1
78 6 3
79 6 3
80 6 3
81 6 1
82 6 2
83 6 5
84 6 1
85 6 2
86 6 3
87 6 2
88 6 3
89 6 2
90 6 3
91 6 1
92 6 2
93 6 4
95 6 3
96 6 2
97 6 2
98 6 2
99 6 3
100 6 4
101 6 1
102 6 2
103 6 4
104 6 4
105 6 2
106 6 4
107 6 2
109 6 4
110 6 2
111 6 3
112 6 2
113 6 2
114 6 1
115 6 4
116 6 2
117 6 2
118 6 1
119 6 2
121 6 2
122 6 9
123 6 3
125 6 5
126 6 6
127 6 2
128 6 2
129 6 1
130 6 4
131 6 1
132 6 1
133 6 2
134 6 3
135 6 1
136 6 2
137 6 3
139 6 2
140 6 1
142 6 3
143 6 3
144 6 1
145 6 4
146 6 3
148 6 4
149 6 1
150 6 5
151 6 3
152 6 1
153 6 4
154 6 4
155 6 3
156 6 4
157 6 2
158 6 1
159 6 2
160 6 3
161 6 1
162 6 2
163 6 4
164 6 6
165 6 1
167 6 5
168 6 3
169 6 3
171 6 2
172 6 3
173 6 1
174 6 2
175 6 3
176 6 5
177 6 2
178 6 4
179 6 3
180 6 2
181 6 4
182 6 4
183 6 3
184 6 2
185 6 3
186 6 2
187 6 4
188 6 1
189 6 4
190 6 3
191 6 1
192 6 2
193 6 4
194 6 1
195 6 1
196 6 3
198 6 6
199 6 4
200 6 1
202 6 3
203 6 5
204 6 3
205 6 4
207 6 7
208 6 4
209 6 2
210 6 1
211 6 2
212 6 4
213 6 2
214 6 3
215 6 3
216 6 4
217 6 3
218 6 2
219 6 2
220 6 5
221 6 3
222 6 1
223 6 1
224 6 1
225 6 1
226 6 1
227 6 2
228 6 3
229 6 2
230 6 2
231 6 7
232 6 2
233 6 4
234 6 1
235 6 2
236 6 2
237 6 1
238 6 2
239 6 3
240 6 3
241 6 3
242 6 1
243 6 3
244 6 3
245 6 4
246 6 6
247 6 1
248 6 1
249 6 2
250 6 4
1 7 6
2 7 3
3 7 11
4 7 8
5 7 7
6 7 7
7 7 4
8 7 1
9 7 3
10 7 3
11 7 2
12 7 2
13 7 5
14 7 1
16 7 1
17 7 1
18 7 1
19 7 2
20 7 2
21 7 3
22 7 5
23 7 5
24 7 5
25 7 3
26 7 1
27 7 2
28 7 3
29 7 4
30 7 3
31 7 5
33 7 1
34 7 3
35 7 3
36 7 1
37 7 5
38 7 2
39 7 2
40 7 1
41 7 1
42 7 3
43 7 3
44 7 2
45 7 5
46 7 5
47 7 4
48 7 3
49 7 2
50 7 1
51 7 3
52 7 4
53 7 2
54 7 3
55 7 3
56 7 2
57 7 3
58 7 5
59 7 3
60 7 2
61 7 2
64 7 2
65 7 2
66 7 1
67 7 4
68 7 3
69 7 5
70 7 2
71 7 3
72 7 4
73 7 5
74 7 1
75 7 2
77 7 2
78 7 3
79 7 2
80 7 1
81 7 5
82 7 4
83 7 3
84 7 1
85 7 2
86 7 2
87 7 2
88 7 2
89 7 6
90 7 4
92 7 4
93 7 2
94 7 3
95 7 5
96 7 3
97 7 1
98 7 2
99 7 2
100 7 1
101 7 3
102 7 3
103 7 3
105 7 2
106 7 3
107 7 3
108 7 2
109 7 2
111 7 2
112 7 1
113 7 1
114 7 1
115 7 5
116 7 2
117 7 1
118 7 3
119 7 4
120 7 2
121 7 1
122 7 3
123 7 2
124 7 3
125 7 2
126 7 4
127 7 1
128 7 3
129 7 3
131 7 4
132 7 2
133 7 3
134 7 3
135 7 6
136 7 2
137 7 5
138 7 2
139 7 1
141 7 2
142 7 3
143 7 5
144 7 2
145 7 1
146 7 3
147 7 4
148 7 3
149 7 2
150 7 3
151 7 3
152 7 4
153 7 5
154 7 2
155 7 2
156 7 1
158 7 5
159 7 3
160 7 2
161 7 1
162 7 2
164 7 4
165 7 4
167 7 3
169 7 1
170 7 1
171 7 4
172 7 1
173 7 8
174 7 2
175 7 2
176 7 2
177 7 2
178 7 1
179 7 4
180 7 2
181 7 5
182 7 4
183 7 1
184 7 2
185 7 3
187 7 4
188 7 3
189 7 2
190 7 3
191 7 3
192 7 3
194 7 2
195 7 3
196 7 1
198 7 5
199 7 1
201 7 1
202 7 1
203 7 1
204 7 5
205 7 3
206 7 4
207 7 1
208 7 6
210 7 2
211 7 4
212 7 5
214 7 6
215 7 2
216 7 4
218 7 4
219 7 1
220 7 5
221 7 3
222 7 3
223 7 1
224 7 2
225 7 5
227 7 2
228 7 3
229 7 2
231 7 1
232 7 2
233 7 2
234 7 3
235 7 1
236 7 2
237 7 1
238 7 4
239 7 1
240 7 2
241 7 1
242 7 3
243 7 2
244 7 6
245 7 1
246 7 3
247 7 5
248 7 4
249 7 3
250 7 4
1 8 13
2 8 7
3 8 11
4 8 9
5 8 12
6 8 3
7 8 2
8 8 2
9 8 5
10 8 2
11 8 2
12 8 4
13 8 1
14 8 3
15 8 3
16 8 4
17 8 4
18 8 3
19 8 2
21 8 5
22 8 2
23 8 1
24 8 3
25 8 2
26 8 3
27 8 2
28 8 3
29 8 6
30 8 4
31 8 3
32 8 2
33 8 2
34 8 2
35 8 3
36 8 1
37 8 7
38 8 5
39 8 3
40 8 2
41 8 1
42 8 4
43 8 4
44 8 1
45 8 4
46 8 1
47 8 2
48 8 2
50 8 2
51 8 6
52 8 4
53 8 4
54 8 2
56 8 3
57 8 4
58 8 2
59 8 2
60 8 3
61 8 1
62 8 1
63 8 1
64 8 2
65 8 5
66 8 2
67 8 4
68 8 1
69 8 4
70 8 3
71 8 3
72 8 2
73 8 1
74 8 1
75 8 4
76 8 3
77 8 1
78 8 1
80 8 4
81 8 2
82 8 1
83 8 3
85 8 3
87 8 1
88 8 1
89 8 5
90 8 5
91 8 2
92 8 3
93 8 3
94 8 2
95 8 4
96 8 1
97 8 2
98 8 2
99 8 4
100 8 2
101 8 3
102 8 1
103 8 3
104 8 5
105 8 1
106 8 2
107 8 2
108 8 1
109 8 2
110 8 2
111 8 1
112 8 1
113 8 7
114 8 1
115 8 2
116 8 2
117 8 2
118 8 3
120 8 2
121 8 5
122 8 3
123 8 4
124 8 2
126 8 2
127 8 1
128 8 5
129 8 2
130 8 1
131 8 2
132 8 1
134 8 4
135 8 1
136 8 4
137 8 3
138 8 3
139 8 4
140 8 2
141 8 5
142 8 2
143 8 1
144 8 1
145 8 2
146 8 3
147 8 1
148 8 2
149 8 3
150 8 4
151 8 1
152 8 3
153 8 4
154 8 2
155 8 1
156 8 3
157 8 2
158 8 1
159 8 1
160 8 3
161 8 2
162 8 1
163 8 1
164 8 5
165 8 2
166 8 3
167 8 1
168 8 3
169 8 2
170 8 2
171 8 3
172 8 1
173 8 2
174 8 1
175 8 4
176 8 2
177 8 3
178 8 3
179 8 1
180 8 1
182 8 2
183 8 5
184 8 1
187 8 4
188 8 2
190 8 3
191 8 2
192 8 1
194 8 2
195 8 2
197 8 1
198 8 3
199 8 4
200 8 2
201 8 2
202 8 3
203 8 1
205 8 1
206 8 1
208 8 2
209 8 3
210 8 5
211 8 3
212 8 3
213 8 3
214 8 3
215 8 1
216 8 2
217 8 4
218 8 1
219 8 1
220 8 3
221 8 1
223 8 2
224 8 1
225 8 1
226 8 1
227 8 3
228 8 1
230 8 1
232 8 2
233 8 3
235 8 2
236 8 4
237 8 4
238 8 4
239 8 2
240 8 3
241 8 2
242 8 1
243 8 4
244 8 1
245 8 3
246 8 3
247 8 4
249 8 3
250 8 2
1 9 10
2 9 9
3 9 6
4 9 13
5 9 10
6 9 4
7 9 2
8 9 5
9 9 2
10 9 7
11 9 4
12 9 2
14 9 1
15 9 5
16 9 2
17 9 3
18 9 5
19 9 1
22 9 1
23 9 3
25 9 2
26 9 2
27 9 3
28 9 3
29 9 3
30 9 3
31 9 1
32 9 1
33 9 1
34 9 1
35 9 1
36 9 4
37 9 3
38 9 1
39 9 3
40 9 1
41 9 1
42 9 3
43 9 2
44 9 2
45 9 2
46 9 1
47 9 2
48 9 1
49 9 3
50 9 4
51 9 1
52 9 2
53 9 1
54 9 4
55 9 4
56 9 2
57 9 5
58 9 5
59 9 4
60 9 3
61 9 1
63 9 1
64 9 2
65 9 3
66 9 3
67 9 1
68 9 3
69 9 3
70 9 1
71 9 1
72 9 3
73 9 1
74 9 3
75 9 3
76 9 1
77 9 3
78 9 4
79 9 2
80 9 4
82 9 2
83 9 5
84 9 4
85 9 4
86 9 1
87 9 4
88 9 2
89 9 5
90 9 3
91 9 3
92 9 1
93 9 3
94 9 2
95 9 1
97 9 1
98 9 2
99 9 5
100 9 2
101 9 2
103 9 2
104 9 4
105 9 1
106 9 4
107 9 4
108 9 5
109 9 4
110 9 3
111 9 1
112 9 3
113 9 1
114 9 6
115 9 3
116 9 2
117 9 4
118 9 2
119 9 2
120 9 2
121 9 2
122 9 4
123 9 1
124 9 3
125 9 2
126 9 1
127 9 5
128 9 1
129 9 3
130 9 1
131 9 1
132 9 2
134 9 3
136 9 1
137 9 1
139 9 3
140 9 5
142 9 1
143 9 2
144 9 2
145 9 3
146 9 4
147 9 3
148 9 3
149 9 2
150 9 4
151 9 2
152 9 2
153 9 1
154 9 5
155 9 3
156 9 2
157 9 2
158 9 2
159 9 2
160 9 2
161 9 1
162 9 3
163 9 2
164 9 1
165 9 3
166 9 5
167 9 6
168 9 1
169 9 3
170 9 5
173 9 3
174 9 2
175 9 4
176 9 1
177 9 3
178 9 2
179 9 6
180 9 3
181 9 2
182 9 3
183 9 2
184 9 2
185 9 1
186 9 2
188 9 1
189 9 4
190 9 1
191 9 5
192 9 3
193 9 1
194 9 2
195 9 4
196 9 2
197 9 2
198 9 2
199 9 2
200 9 3
201 9 3
202 9 2
203 9 2
204 9 2
205 9 4
206 9 1
208 9 5
209 9 2
210 9 1
211 9 1
212 9 2
213 9 5
214 9 3
215 9 3
216 9 3
218 9 3
219 9 1
220 9 2
221 9 2
222 9 1
224 9 6
225 9 4
226 9 4
227 9 2
228 9 1
229 9 2
230 9 3
232 9 2
233 9 2
234 9 3
236 9 1
237 9 1
239 9 5
240 9 3
241 9 4
242 9 5
243 9 2
244 9 3
245 9 3
246 9 1
247 9 5
248 9 3
249 9 1
1 10 12
2 10 12
3 10 10
4 10 18
5 10 10
6 10 2
7 10 3
8 10 2
9 10 2
10 10 2
12 10 2
13 10 1
14 10 4
15 10 3
16 10 1
17 10 3
18 10 3
19 10 4
20 10 2
21 10 4
22 10 1
23 10 5
24 10 5
25 10 1
26 10 3
27 10 2
30 10 4
31 10 2
32 10 3
33 10 4
35 10 2
36 10 5
37 10 5
38 10 2
39 10 4
40 10 4
41 10 2
42 10 4
43 10 2
44 10 2
45 10 4
46 10 3
47 10 3
48 10 1
49 10 3
50 10 2
51 10 1
52 10 1
53 10 2
54 10 1
55 10 2
56 10 1
57 10 3
58 10 2
59 10 3
60 10 1
61 10 1
63 10 4
64 10 4
65 10 6
66 10 3
67 10 3
68 10 2
69 10 3
70 10 2
71 10 2
72 10 1
73 10 1
74 10 3
75 10 1
76 10 2
77 10 3
78 10 3
79 10 2
80 10 3
81 10 1
83 10 5
84 10 6
85 10 2
86 10 3
88 10 3
89 10 3
90 10 3
91 10 4
92 10 4
93 10 5
94 10 3
95 10 2
96 10 3
97 10 2
98 10 1
99 10 3
101 10 3
102 10 1
103 10 3
104 10 1
105 10 2
106 10 4
107 10 1
108 10 1
109 10 2
110 10 4
111 10 1
112 10 4
113 10 2
114 10 2
115 10 3
116 10 3
117 10 1
118 10 4
119 10 4
120 10 1
121 10 6
122 10 4
123 10 3
124 10 6
125 10 3
126 10 3
127 10 3
128 10 1
129 10 1
130 10 1
131 10 5
132 10 2
133 10 4
134 10 1
135 10 5
136 10 2
137 10 3
138 10 5
139 10 1
140 10 1
141 10 3
142 10 2
143 10 3
144 10 2
145 10 2
146 10 8
148 10 1
149 10 1
150 10 5
151 10 1
152 10 1
153 10 3
154 10 4
155 10 1
156 10 5
157 10 2
158 10 2
159 10 5
160 10 2
161 10 2
162 10 3
163 10 3
164 10 4
165 10 1
166 10 3
167 10 1
168 10 4
170 10 6
171 10 4
174 10 4
175 10 2
176 10 3
177 10 1
178 10 3
179 10 2
180 10 2
181 10 1
182 10 2
183 10 4
184 10 5
185 10 2
186 10 2
187 10 1
188 10 2
189 10 4
190 10 4
191 10 2
193 10 2
194 10 5
195 10 3
197 10 1
198 10 2
199 10 2
200 10 4
201 10 1
202 10 2
203 10 1
204 10 1
205 10 3
206 10 4
207 10 2
208 10 6
209 10 5
210 10 6
211 10 1
212 10 2
213 10 3
214 10 1
215 10 2
216 10 3
217 10 5
218 10 5
219 10 3
220 10 3
221 10 2
222 10 4
223 10 6
224 10 4
225 10 4
226 10 1
227 10 2
228 10 4
229 10 3
230 10 1
231 10 1
232 10 1
233 10 3
234 10 4
235 10 1
236 10 3
237 10 3
238 10 1
239 10 2
240 10 1
241 10 5
242 10 2
243 10 4
244 10 2
245 10 4
246 10 1
247 10 5
248 10 1
249 10 5
250 10 3
1 11 11
2 11 13
3 11 20
4 11 11
5 11 13
7 11 2
8 11 4
10 11 1
12 11 3
14 11 3
15 11 4
17 11 5
18 11 1
19 11 2
20 11 2
21 11 4
23 11 2
24 11 3
25 11 4
26 11 2
27 11 2
28 11 1
29 11 1
30 11 4
31 11 3
32 11 6
33 11 3
34 11 4
35 11 5
36 11 2
37 11 2
38 11 2
39 11 2
40 11 1
41 11 1
42 11 3
43 11 4
44 11 2
45 11 3
46 11 1
47 11 6
48 11 4
50 11 5
51 11 4
52 11 3
53 11 2
54 11 7
55 11 4
56 11 5
57 11 1
58 11 2
59 11 1
60 11 2
61 11 1
62 11 3
63 11 3
64 11 2
65 11 2
66 11 3
67 11 3
68 11 1
69 11 1
70 11 4
71 11 5
72 11 3
73 11 1
74 11 2
75 11 1
76 11 5
77 11 1
78 11 1
79 11 2
80 11 1
81 11 2
82 11 4
83 11 1
84 11 3
85 11 4
86 11 1
87 11 2
88 11 1
89 11 2
90 11 3
91 11 1
92 11 3
93 11 3
94 11 4
95 11 1
96 11 3
97 11 3
98 11 6
99 11 2
100 11 5
101 11 1
102 11 3
103 11 2
104 11 5
105 11 1
106 11 4
107 11 1
108 11 2
109 11 2
110 11 1
111 11 8
113 11 3
114 11 3
115 11 1
116 11 2
117 11 1
119 11 3
120 11 5
121 11 2
122 11 2
123 11 5
124 11 3
125 11 3
126 11 4
127 11 1
128 11 1
129 11 2
130 11 4
131 11 3
132 11 1
133 11 4
135 11 1
137 11 1
138 11 2
139 11 1
140 11 2
141 11 1
142 11 1
143 11 1
144 11 2
145 11 2
146 11 2
148 11 2
149 11 1
150 11 3
151 11 4
152 11 3
153 11 2
154 11 2
155 11 1
156 11 2
157 11 1
158 11 4
159 11 5
160 11 2
161 11 3
163 11 1
164 11 3
165 11 4
168 11 1
169 11 5
170 11 1
171 11 1
172 11 4
173 11 3
174 11 1
175 11 5
176 11 2
177 11 4
178 11 2
179 11 5
180 11 4
181 11 1
182 11 1
183 11 2
184 11 4
185 11 3
186 11 3
187 11 1
188 11 6
189 11 2
190 11 6
191 11 3
192 11 4
193 11 4
194 11 2
195 11 6
196 11 5
197 11 3
198 11 3
200 11 2
201 11 4
202 11 1
204 11 2
205 11 3
206 11 2
207 11 3
208 11 2
209 11 1
210 11 1
211 11 1
213 11 3
214 11 2
215 11 2
216 11 2
217 11 3
218 11 2
219 11 3
220 11 2
221 11 4
222 11 1
223 11 3
224 11 3
226 11 1
228 11 3
229 11 2
230 11 3
231 11 6
232 11 5
233 11 6
234 11 3
235 11 1
236 11 1
237 11 2
238 11 1
239 11 2
240 11 3
241 11 1
242 11 2
243 11 3
244 11 4
245 11 4
246 11 4
248 11 3
249 11 1
250 11 2
1 12 14
2 12 12
3 12 8
4 12 6
5 12 11
6 12 2
7 12 2
8 12 2
9 12 2
10 12 1
11 12 2
12 12 2
13 12 3
15 12 5
16 12 3
17 12 1
18 12 2
19 12 4
20 12 1
21 12 1
22 12 2
23 12 3
24 12 8
25 12 3
26 12 3
27 12 1
28 12 7
29 12 1
30 12 2
31 12 2
32 12 2
33 12 3
34 12 2
35 12 5
37 12 2
38 12 3
39 12 3
40 12 2
42 12 1
43 12 2
44 12 3
45 12 1
46 12 1
47 12 3
48 12 3
49 12 3
50 12 3
52 12 3
53 12 4
54 12 3
55 12 2
56 12 3
57 12 3
58 12 1
59 12 3
60 12 3
61 12 7
62 12 1
63 12 4
64 12 3
65 12 2
66 12 4
67 12 4
68 12 6
69 12 2
70 12 2
71 12 1
72 12 2
74 12 2
75 12 1
76 12 5
77 12 2
78 12 2
80 12 4
81 12 1
83 12 1
84 12 2
85 12 5
86 12 1
88 12 2
89 12 1
90 12 1
91 12 7
92 12 3
93 12 4
94 12 3
95 12 4
97 12 3
98 12 4
99 12 2
100 12 1
101 12 2
102 12 5
103 12 3
104 12 3
105 12 2
106 12 1
107 12 1
108 12 2
109 12 2
110 12 4
111 12 4
112 12 2
113 12 3
114 12 2
115 12 3
116 12 2
117 12 1
118 12 3
119 12 4
120 12 3
121 12 4
122 12 4
123 12 3
124 12 2
125 12 2
126 12 3
127 12 2
128 12 1
129 12 1
130 12 2
131 12 3
133 12 2
135 12 1
136 12 2
137 12 3
138 12 2
139 12 2
140 12 2
141 12 2
142 12 4
143 12 2
144 12 3
145 12 4
146 12 1
147 12 2
148 12 3
149 12 2
150 12 3
151 12 2
153 12 5
154 12 4
155 12 2
156 12 5
157 12 1
158 12 2
159 12 1
160 12 4
161 12 6
162 12 5
163 12 3
164 12 5
165 12 3
166 12 5
167 12 1
168 12 3
169 12 3
170 12 1
171 12 2
172 12 4
173 12 2
174 12 1
175 12 1
176 12 3
177 12 3
178 12 1
179 12 3
180 12 1
181 12 2
182 12 4
183 12 2
184 12 4
186 12 3
187 12 5
188 12 6
189 12 3
190 12 2
191 12 4
193 12 2
194 12 2
195 12 3
196 12 3
197 12 2
198 12 4
199 12 3
200 12 4
201 12 3
202 12 1
203 12 3
204 12 4
205 12 4
206 12 6
207 12 2
208 12 3
209 12 1
210 12 1
211 12 3
212 12 3
213 12 2
215 12 4
216 12 5
217 12 2
218 12 2
219 12 3
220 12 1
221 12 2
222 12 3
223 12 4
224 12 3
225 12 4
226 12 4
227 12 3
228 12 5
229 12 4
230 12 1
231 12 2
232 12 1
233 12 3
234 12 1
235 12 4
236 12 2
237 12 2
238 12 1
239 12 3
240 12 4
241 12 5
242 12 4
243 12 5
244 12 4
245 12 2
247 12 2
248 12 3
249 12 3
250 12 5
1 13 6
2 13 5
3 13 14
4 13 11
5 13 8
6 13 1
7 13 5
8 13 1
9 13 4
10 13 4
11 13 3
13 13 1
14 13 2
15 13 1
16 13 6
17 13 3
18 13 1
19 13 2
20 13 1
21 13 6
22 13 5
23 13 5
24 13 2
27 13 2
28 13 3
29 13 1
31 13 2
32 13 5
33 13 2
34 13 1
35 13 2
36 13 4
37 13 4
38 13 5
39 13 2
42 13 3
44 13 5
45 13 1
46 13 3
47 13 3
48 13 2
49 13 2
50 13 2
51 13 3
52 13 2
53 13 4
54 13 2
55 13 2
56 13 2
57 13 2
58 13 1
59 13 1
61 13 1
62 13 3
63 13 3
64 13 4
65 13 1
66 13 2
67 13 5
68 13 3
70 13 3
71 13 6
72 13 2
74 13 4
75 13 2
76 13 2
77 13 2
78 13 2
79 13 2
80 13 3
81 13 2
82 13 2
83 13 4
84 13 7
85 13 3
86 13 4
87 13 2
88 13 2
89 13 7
90 13 4
91 13 1
92 13 1
93 13 2
94 13 1
96 13 2
97 13 1
98 13 2
99 13 4
100 13 3
101 13 4
102 13 3
103 13 3
104 13 1
105 13 3
106 13 2
107 13 2
108 13 2
109 13 1
110 13 5
111 13 2
112 13 1
115 13 2
116 13 2
117 13 2
118 13 4
119 13 1
120 13 3
121 13 2
122 13 1
123 13 3
124 13 2
125 13 3
126 13 1
128 13 2
129 13 1
130 13 3
131 13 4
132 13 2
134 13 3
135 13 4
136 13 2
137 13 5
138 13 1
139 13 3
140 13 4
141 13 1
142 13 4
143 13 7
144 13 1
145 13 2
146 13 6
147 13 1
148 13 1
149 13 3
150 13 4
151 13 7
152 13 2
153 13 2
154 13 3
155 13 4
156 13 2
157 13 1
158 13 1
159 13 4
162 13 2
163 13 1
164 13 4
166 13 2
167 13 3
169 13 5
170 13 2
171 13 3
172 13 1
173 13 4
174 13 2
175 13 2
176 13 3
177 13 3
178 13 5
179 13 4
180 13 2
181 13 5
182 13 3
183 13 2
184 13 3
185 13 4
186 13 1
188 13 3
189 13 2
190 13 2
191 13 2
193 13 3
194 13 4
195 13 5
196 13 1
198 13 3
199 13 4
202 13 3
203 13 3
205 13 2
207 13 2
208 13 4
209 13 5
210 13 2
211 13 2
212 13 4
213 13 1
214 13 2
215 13 6
216 13 2
217 13 1
218 13 2
219 13 2
220 13 2
221 13 3
222 13 1
223 13 1
224 13 5
225 13 6
226 13 3
227 13 2
228 13 1
229 13 2
230 13 4
231 13 1
232 13 3
233 13 2
234 13 1
235 13 6
236 13 3
237 13 6
238 13 1
239 13 2
240 13 4
241 13 1
242 13 3
243 13 2
244 13 2
245 13 2
248 13 2
249 13 1
250 13 2
1 14 8
2 14 18
3 14 14
4 14 15
5 14 12
6 14 3
7 14 2
8 14 1
9 14 2
10 14 6
11 14 5
12 14 3
13 14 3
14 14 2
15 14 4
16 14 1
17 14 3
18 14 1
19 14 5
20 14 2
21 14 3
22 14 5
24 14 2
25 14 2
26 14 4
27 14 2
28 14 1
30 14 1
33 14 2
34 14 4
35 14 1
37 14 2
38 14 6
39 14 2
41 14 5
42 14 5
43 14 2
44 14 5
45 14 2
46 14 4
47 14 1
48 14 4
49 14 6
50 14 4
51 14 2
52 14 3
53 14 2
54 14 2
56 14 4
57 14 2
58 14 2
59 14 4
60 14 3
61 14 4
62 14 2
63 14 2
64 14 1
65 14 4
67 14 5
68 14 4
69 14 2
70 14 6
71 14 7
72 14 1
73 14 6
74 14 3
75 14 5
76 14 3
77 14 2
78 14 1
79 14 2
80 14 3
81 14 2
82 14 2
83 14 3
84 14 3
85 14 3
86 14 3
87 14 2
88 14 2
89 14 2
90 14 3
91 14 2
92 14 4
93 14 1
94 14 4
95 14 1
96 14 4
97 14 3
98 14 1
99 14 3
100 14 4
102 14 2
103 14 3
105 14 3
106 14 5
107 14 5
108 14 2
110 14 5
111 14 3
113 14 4
114 14 4
115 14 3
116 14 3
117 14 2
118 14 1
119 14 2
120 14 3
121 14 1
122 14 3
123 14 3
124 14 3
125 14 5
126 14 2
127 14 4
129 14 3
132 14 3
133 14 1
134 14 1
135 14 3
136 14 1
137 14 2
138 14 2
140 14 2
141 14 1
143 14 3
145 14 3
146 14 6
147 14 3
148 14 7
149 14 3
150 14 2
151 14 1
152 14 4
153 14 6
154 14 5
155 14 2
156 14 6
157 14 4
158 14 2
159 14 2
160 14 1
161 14 1
162 14 2
163 14 1
164 14 2
165 14 4
166 14 4
167 14 2
168 14 3
169 14 6
170 14 4
171 14 4
172 14 3
173 14 3
174 14 5
175 14 3
177 14 4
179 14 3
181 14 1
182 14 4
183 14 4
184 14 1
185 14 5
186 14 1
188 14 4
189 14 2
191 14 3
193 14 2
194 14 1
195 14 1
196 14 5
197 14 2
198 14 2
199 14 3
200 14 1
201 14 4
202 14 4
203 14 1
204 14 4
205 14 3
206 14 3
207 14 3
208 14 3
209 14 4
210 14 1
211 14 1
212 14 2
213 14 4
214 14 7
215 14 5
216 14 4
217 14 1
218 14 6
219 14 3
220 14 3
221 14 3
222 14 3
223 14 3
224 14 1
225 14 4
227 14 1
228 14 2
229 14 3
230 14 2
231 14 4
232 14 1
233 14 4
234 14 2
235 14 4
236 14 2
237 14 3
238 14 1
239 14 2
240 14 1
241 14 2
242 14 6
243 14 4
244 14 2
245 14 3
246 14 3
247 14 5
248 14 4
249 14 3
1 15 10
2 15 6
3 15 14
4 15 11
5 15 10
6 15 2
7 15 2
8 15 5
10 15 4
11 15 1
12 15 3
13 15 2
14 15 2
15 15 1
16 15 1
17 15 3
18 15 1
19 15 2
20 15 3
21 15 1
22 15 3
23 15 4
24 15 7
26 15 4
27 15 4
28 15 2
29 15 2
30 15 1
31 15 1
32 15 3
33 15 1
34 15 4
35 15 4
36 15 2
37 15 1
38 15 3
39 15 1
40 15 2
41 15 3
42 15 4
43 15 5
44 15 1
45 15 4
46 15 3
47 15 1
48 15 3
50 15 3
51 15 3
52 15 3
53 15 2
54 15 3
55 15 3
58 15 2
59 15 3
61 15 4
62 15 1
63 15 5
64 15 3
65 15 3
66 15 4
67 15 1
68 15 5
69 15 4
70 15 2
71 15 2
72 15 1
73 15 4
74 15 1
75 15 3
76 15 1
77 15 2
78 15 2
79 15 3
81 15 6
82 15 2
83 15 4
84 15 2
85 15 2
86 15 7
87 15 2
88 15 1
89 15 5
91 15 3
92 15 2
94 15 3
95 15 1
96 15 2
98 15 2
101 15 1
102 15 4
103 15 3
104 15 5
105 15 5
106 15 3
107 15 4
108 15 5
109 15 2
110 15 3
111 15 2
112 15 3
114 15 3
115 15 3
116 15 1
117 15 1
118 15 3
119 15 6
120 15 4
121 15 4
123 15 2
124 15 1
125 15 1
126 15 2
127 15 2
128 15 2
129 15 2
130 15 5
131 15 5
132 15 1
133 15 1
134 15 3
135 15 3
136 15 2
137 15 2
138 15 1
139 15 5
140 15 4
141 15 2
142 15 2
143 15 3
144 15 1
145 15 1
146 15 2
147 15 3
148 15 4
149 15 3
150 15 3
151 15 2
152 15 2
153 15 2
154 15 3
155 15 2
156 15 5
157 15 4
158 15 1
159 15 5
160 15 1
161 15 1
162 15 1
163 15 5
164 15 3
165 15 3
166 15 5
167 15 5
168 15 1
169 15 2
170 15 3
171 15 2
173 15 4
174 15 7
175 15 1
176 15 2
177 15 2
178 15 5
179 15 2
180 15 3
181 15 3
182 15 3
183 15 3
184 15 2
185 15 1
187 15 3
188 15 2
189 15 5
190 15 4
191 15 2
192 15 2
193 15 3
194 15 1
196 15 3
197 15 1
198 15 3
199 15 3
200 15 3
201 15 1
202 15 3
203 15 1
205 15 1
206 15 1
207 15 1
208 15 5
209 15 1
210 15 5
212 15 2
213 15 2
214 15 5
215 15 3
216 15 3
217 15 1
218 15 3
219 15 2
220 15 2
221 15 2
222 15 3
223 15 3
224 15 1
225 15 2
226 15 2
227 15 1
229 15 1
230 15 3
231 15 1
232 15 4
233 15 3
234 15 2
235 15 3
237 15 5
238 15 1
239 15 3
240 15 1
241 15 4
242 15 6
243 15 3
244 15 3
245 15 2
246 15 2
247 15 3
248 15 4
249 15 2
1 16 10
2 16 6
3 16 14
4 16 9
5 16 6
6 16 3
7 16 1
8 16 3
9 16 2
10 16 1
11 16 2
12 16 2
13 16 1
14 16 2
15 16 1
16 16 2
17 16 2
18 16 3
19 16 3
20 16 1
21 16 1
22 16 2
23 16 3
24 16 2
25 16 2
26 16 4
27 16 2
28 16 2
29 16 3
30 16 5
31 16 1
32 16 2
33 16 1
34 16 3
35 16 4
37 16 3
38 16 5
39 16 8
40 16 1
42 16 2
43 16 5
44 16 1
45 16 3
46 16 4
47 16 1
49 16 4
50 16 4
51 16 3
52 16 3
53 16 2
54 16 3
55 16 3
56 16 5
57 16 2
58 16 1
59 16 1
60 16 5
61 16 3
62 16 4
63 16 9
64 16 2
65 16 4
67 16 3
68 16 6
69 16 2
70 16 2
71 16 2
72 16 3
73 16 3
74 16 5
75 16 1
76 16 2
77 16 2
78 16 1
79 16 3
80 16 1
81 16 3
82 16 3
83 16 1
84 16 4
85 16 2
86 16 2
87 16 5
88 16 6
89 16 3
90 16 2
91 16 3
92 16 4
93 16 2
94 16 3
95 16 5
96 16 2
97 16 3
98 16 2
100 16 6
102 16 3
103 16 1
104 16 4
105 16 3
106 16 3
107 16 4
108 16 4
109 16 3
110 16 1
111 16 3
112 16 5
113 16 1
114 16 2
116 16 3
117 16 3
119 16 4
120 16 4
121 16 3
122 16 8
123 16 1
124 16 4
125 16 5
126 16 1
127 16 3
128 16 6
129 16 3
130 16 5
131 16 2
132 16 1
133 16 2
134 16 5
135 16 2
136 16 1
137 16 2
138 16 4
139 16 1
140 16 5
141 16 2
142 16 1
143 16 4
144 16 3
145 16 3
146 16 3
147 16 4
149 16 3
151 16 3
152 16 2
153 16 1
154 16 3
155 16 3
156 16 1
157 16 4
158 16 1
159 16 1
160 16 6
161 16 2
162 16 2
163 16 4
165 16 2
166 16 2
167 16 5
168 16 1
169 16 4
170 16 7
171 16 8
172 16 4
173 16 2
174 16 4
175 16 2
176 16 2
177 16 3
179 16 7
180 16 1
182 16 1
183 16 1
184 16 3
185 16 2
186 16 2
187 16 1
188 16 2
189 16 3
190 16 3
191 16 2
192 16 3
193 16 6
194 16 1
195 16 3
196 16 5
198 16 1
199 16 1
200 16 4
201 16 3
203 16 3
204 16 3
205 16 3
206 16 2
207 16 4
208 16 2
209 16 5
210 16 3
211 16 3
212 16 2
213 16 4
214 16 5
215 16 2
216 16 4
217 16 4
218 16 1
219 16 2
220 16 3
221 16 2
223 16 6
224 16 2
225 16 2
226 16 1
227 16 2
228 16 4
230 16 4
232 16 6
233 16 2
234 16 1
235 16 1
236 16 1
237 16 7
238 16 1
239 16 2
241 16 3
242 16 7
243 16 2
244 16 2
245 16 2
246 16 6
247 16 5
248 16 1
249 16 4
250 16 1
1 17 6
2 17 7
3 17 11
4 17 8
5 17 14
6 17 2
7 17 5
8 17 5
10 17 4
11 17 1
12 17 4
14 17 1
15 17 3
16 17 2
17 17 2
18 17 4
19 17 1
20 17 4
21 17 1
22 17 3
23 17 1
24 17 1
25 17 1
26 17 4
28 17 6
29 17 3
30 17 3
32 17 5
33 17 1
34 17 4
35 17 3
36 17 2
37 17 5
38 17 3
39 17 5
40 17 4
41 17 2
42 17 6
45 17 3
46 17 2
47 17 2
50 17 1
51 17 4
52 17 3
53 17 2
54 17 1
55 17 1
56 17 3
57 17 5
58 17 3
59 17 1
60 17 2
61 17 1
62 17 4
63 17 8
64 17 1
65 17 6
66 17 3
68 17 4
69 17 1
70 17 1
71 17 6
72 17 4
73 17 1
75 17 1
76 17 4
78 17 3
79 17 4
80 17 1
81 17 2
82 17 1
84 17 2
85 17 1
87 17 4
88 17 2
89 17 1
90 17 3
91 17 3
92 17 1
93 17 5
94 17 1
95 17 3
96 17 2
97 17 4
98 17 1
99 17 4
100 17 1
101 17 2
102 17 2
104 17 1
105 17 2
106 17 1
107 17 1
108 17 2
109 17 2
110 17 2
111 17 2
112 17 3
114 17 4
115 17 2
116 17 2
117 17 1
118 17 7
119 17 2
120 17 1
121 17 5
122 17 6
123 17 2
124 17 3
125 17 5
126 17 3
127 17 2
128 17 4
129 17 4
130 17 4
131 17 2
132 17 1
133 17 3
134 17 7
135 17 3
136 17 1
137 17 2
138 17 1
139 17 5
140 17 3
141 17 4
142 17 4
144 17 3
145 17 2
146 17 1
147 17 1
149 17 3
150 17 4
151 17 1
152 17 2
153 17 1
154 17 3
156 17 2
157 17 2
158 17 3
159 17 2
160 17 2
161 17 3
162 17 4
163 17 2
164 17 4
165 17 3
166 17 3
167 17 1
168 17 3
169 17 2
170 17 6
171 17 3
172 17 3
173 17 4
174 17 1
175 17 4
176 17 3
178 17 4
179 17 1
180 17 2
182 17 2
183 17 1
184 17 3
185 17 4
186 17 2
187 17 1
188 17 1
189 17 2
190 17 3
191 17 2
192 17 4
194 17 3
195 17 5
197 17 3
198 17 2
199 17 1
200 17 2
201 17 3
202 17 4
203 17 5
204 17 3
205 17 6
206 17 2
208 17 1
209 17 2
210 17 5
212 17 4
213 17 2
214 17 3
215 17 1
216 17 5
218 17 2
219 17 3
220 17 3
221 17 1
222 17 5
223 17 1
224 17 4
225 17 1
226 17 4
227 17 3
228 17 2
229 17 2
230 17 1
231 17 2
232 17 3
233 17 2
234 17 1
235 17 1
236 17 2
237 17 7
238 17 3
239 17 1
240 17 1
241 17 3
242 17 4
243 17 2
244 17 2
245 17 3
246 17 4
247 17 4
248 17 3
249 17 2
250 17 1
1 18 11
2 18 14
3 18 9
4 18 6
5 18 16
7 18 3
8 18 2
9 18 2
10 18 3
11 18 3
12 18 4
13 18 3
14 18 1
15 18 2
16 18 5
17 18 2
18 18 4
19 18 3
20 18 2
21 18 2
22 18 3
23 18 2
24 18 3
25 18 4
26 18 4
27 18 2
28 18 3
29 18 1
30 18 2
31 18 3
32 18 4
33 18 5
34 18 2
35 18 7
36 18 4
37 18 3
38 18 5
39 18 4
40 18 3
41 18 4
42 18 4
43 18 6
44 18 5
45 18 4
46 18 1
47 18 4
48 18 3
49 18 3
50 18 1
51 18 2
52 18 4
54 18 1
55 18 3
56 18 1
57 18 2
58 18 2
59 18 3
60 18 2
61 18 1
62 18 2
63 18 4
64 18 2
65 18 3
66 18 7
67 18 5
68 18 3
69 18 6
70 18 2
71 18 2
72 18 3
74 18 6
75 18 2
76 18 2
77 18 2
78 18 3
79 18 4
80 18 2
83 18 4
84 18 5
85 18 2
86 18 1
87 18 1
88 18 1
89 18 4
90 18 1
91 18 2
92 18 4
94 18 5
96 18 2
97 18 2
98 18 2
99 18 2
100 18 2
102 18 3
103 18 3
104 18 1
105 18 1
106 18 2
107 18 2
109 18 2
110 18 2
111 18 2
112 18 4
113 18 5
114 18 2
115 18 1
117 18 2
118 18 3
119 18 3
120 18 4
121 18 4
122 18 1
123 18 1
124 18 3
126 18 4
127 18 3
128 18 3
130 18 1
131 18 5
133 18 3
134 18 3
135 18 3
136 18 2
137 18 3
138 18 1
139 18 1
140 18 2
141 18 1
142 18 4
143 18 4
145 18 3
146 18 1
147 18 1
148 18 3
149 18 2
150 18 3
151 18 3
152 18 2
154 18 2
155 18 2
156 18 2
157 18 2
158 18 1
159 18 3
160 18 1
161 18 3
162 18 1
164 18 6
165 18 2
166 18 3
167 18 3
168 18 5
169 18 3
170 18 2
171 18 3
172 18 1
173 18 2
174 18 3
175 18 4
176 18 1
177 18 1
178 18 1
179 18 2
180 18 5
181 18 2
182 18 7
183 18 2
185 18 1
186 18 2
187 18 3
188 18 2
189 18 4
190 18 2
192 18 4
193 18 2
194 18 4
196 18 1
197 18 3
198 18 1
199 18 3
201 18 1
202 18 2
203 18 3
205 18 4
206 18 3
207 18 5
208 18 3
210 18 4
211 18 2
212 18 3
213 18 2
214 18 4
215 18 4
216 18 3
217 18 3
218 18 5
219 18 4
220 18 3
221 18 2
222 18 2
223 18 5
224 18 2
225 18 4
226 18 3
227 18 4
228 18 3
229 18 5
230 18 2
231 18 1
232 18 1
233 18 4
234 18 1
235 18 2
236 18 2
237 18 2
238 18 3
239 18 2
240 18 2
241 18 6
242 18 2
243 18 3
244 18 1
246 18 4
247 18 1
248 18 3
249 18 3
250 18 1
1 19 6
2 19 6
3 19 15
4 19 15
5 19 14
6 19 2
7 19 3
8 19 3
9 19 2
10 19 1
11 19 3
12 19 1
13 19 1
14 19 3
15 19 4
16 19 2
17 19 1
18 19 2
19 19 5
20 19 3
21 19 4
22 19 2
24 19 4
25 19 2
26 19 6
28 19 3
30 19 1
31 19 1
32 19 2
33 19 3
34 19 3
35 19 5
36 19 2
37 19 2
38 19 2
39 19 3
40 19 4
41 19 3
42 19 4
43 19 2
44 19 1
45 19 2
46 19 1
47 19 3
48 19 6
49 19 3
50 19 4
51 19 2
52 19 2
53 19 1
54 19 4
55 19 3
56 19 3
57 19 2
58 19 3
59 19 3
60 19 3
61 19 1
62 19 2
63 19 4
64 19 5
65 19 2
66 19 10
67 19 3
68 19 1
69 19 4
70 19 4
71 19 5
72 19 1
73 19 3
74 19 1
76 19 2
77 19 2
78 19 2
79 19 1
80 19 3
81 19 3
82 19 2
83 19 4
84 19 2
85 19 2
86 19 4
87 19 1
88 19 4
89 19 4
90 19 2
91 19 4
92 19 4
93 19 2
94 19 3
95 19 5
96 19 4
97 19 2
98 19 4
99 19 2
100 19 2
101 19 7
102 19 2
103 19 6
104 19 3
105 19 1
106 19 2
107 19 3
108 19 4
109 19 2
110 19 3
111 19 2
112 19 1
113 19 2
114 19 2
115 19 1
116 19 3
117 19 1
118 19 2
119 19 3
120 19 1
121 19 3
122 19 2
123 19 4
124 19 1
125 19 4
126 19 1
127 19 2
128 19 2
129 19 2
130 19 5
132 19 1
133 19 5
134 19 3
135 19 5
136 19 1
137 19 4
138 19 1
139 19 2
140 19 1
142 19 4
143 19 1
144 19 2
145 19 1
146 19 2
147 19 3
148 19 4
149 19 1
153 19 2
155 19 6
156 19 3
157 19 2
158 19 2
159 19 3
160 19 3
161 19 3
162 19 2
163 19 4
164 19 5
165 19 2
166 19 3
167 19 4
168 19 3
169 19 2
170 19 4
171 19 5
172 19 3
173 19 1
174 19 1
175 19 1
176 19 3
177 19 2
178 19 3
179 19 1
180 19 2
181 19 1
182 19 3
183 19 1
184 19 5
185 19 5
186 19 3
188 19 1
189 19 1
190 19 6
191 19 4
192 19 3
194 19 2
195 19 2
196 19 2
197 19 2
199 19 1
200 19 3
201 19 4
202 19 5
203 19 2
204 19 1
205 19 4
206 19 2
207 19 2
208 19 3
209 19 3
210 19 4
211 19 1
212 19 4
213 19 4
214 19 1
215 19 1
216 19 3
217 19 5
218 19 6
219 19 4
220 19 1
221 19 3
222 19 4
223 19 3
224 19 2
225 19 3
226 19 1
228 19 5
229 19 1
230 19 6
231 19 2
232 19 2
233 19 4
234 19 1
235 19 1
236 19 1
237 19 1
239 19 3
240 19 3
241 19 3
242 19 1
243 19 4
244 19 6
245 19 2
246 19 4
247 19 2
248 19 1
249 19 4
250 19 2
1 20 11
2 20 10
3 20 9
4 20 10
5 20 11
6 20 3
7 20 2
8 20 2
9 20 2
10 20 1
11 20 2
12 20 2
13 20 4
17 20 1
18 20 2
19 20 6
20 20 3
21 20 3
22 20 3
23 20 2
24 20 2
25 20 1
26 20 2
27 20 7
28 20 2
29 20 3
30 20 5
31 20 1
32 20 6
33 20 2
34 20 3
36 20 5
37 20 4
38 20 4
39 20 3
40 20 2
41 20 3
42 20 5
44 20 3
45 20 2
46 20 2
48 20 5
49 20 2
52 20 1
53 20 2
54 20 1
55 20 3
56 20 4
57 20 2
58 20 3
59 20 5
60 20 4
61 20 2
62 20 4
63 20 4
64 20 5
65 20 1
66 20 3
67 20 1
68 20 1
69 20 2
70 20 3
71 20 3
72 20 2
73 20 2
74 20 2
75 20 5
76 20 1
77 20 7
78 20 1
79 20 4
80 20 3
81 20 2
82 20 1
83 20 1
84 20 3
85 20 2
87 20 4
88 20 2
89 20 4
90 20 1
91 20 2
92 20 1
93 20 1
94 20 2
95 20 1
96 20 3
97 20 3
98 20 8
99 20 5
100 20 3
101 20 4
102 20 5
103 20 1
104 20 3
105 20 3
106 20 5
107 20 2
108 20 1
109 20 5
110 20 5
111 20 2
112 20 4
113 20 1
114 20 1
115 20 1
116 20 1
117 20 4
118 20 1
119 20 1
120 20 1
121 20 5
122 20 1
123 20 2
124 20 1
125 20 2
126 20 1
127 20 1
128 20 7
129 20 3
130 20 2
131 20 7
132 20 6
133 20 2
134 20 3
135 20 1
136 20 3
137 20 3
138 20 1
139 20 4
140 20 3
141 20 4
142 20 5
143 20 3
144 20 1
145 20 5
146 20 1
147 20 3
148 20 2
149 20 3
150 20 1
151 20 4
152 20 5
153 20 3
155 20 3
156 20 6
157 20 3
158 20 3
160 20 5
162 20 1
163 20 2
164 20 2
165 20 4
166 20 2
167 20 2
168 20 5
169 20 3
170 20 2
171 20 4
173 20 4
175 20 2
176 20 1
177 20 2
178 20 1
179 20 3
181 20 2
182 20 2
183 20 3
184 20 2
186 20 2
187 20 1
188 20 7
189 20 4
190 20 6
191 20 1
192 20 1
193 20 5
194 20 2
195 20 2
196 20 1
197 20 1
198 20 4
199 20 1
200 20 3
201 20 4
202 20 1
203 20 3
204 20 1
205 20 3
206 20 2
207 20 1
208 20 4
209 20 3
210 20 6
211 20 7
212 20 3
213 20 3
214 20 4
215 20 3
216 20 1
217 20 2
219 20 2
220 20 6
221 20 3
222 20 2
224 20 3
225 20 3
226 20 4
227 20 2
228 20 3
230 20 3
231 20 4
232 20 1
233 20 3
234 20 3
235 20 1
236 20 1
237 20 2
238 20 2
239 20 1
240 20 1
242 20 1
243 20 1
244 20 3
245 20 1
246 20 4
247 20 2
248 20 2
249 20 7
250 20 2
1 21 12
2 21 10
3 21 10
4 21 11
5 21 5
6 21 2
7 21 2
8 21 3
9 21 4
10 21 5
11 21 4
12 21 4
13 21 1
14 21 3
15 21 2
16 21 2
17 21 4
19 21 1
20 21 2
21 21 3
22 21 2
23 21 4
24 21 2
25 21 1
26 21 5
27 21 2
28 21 2
29 21 1
30 21 3
31 21 5
33 21 2
34 21 1
35 21 2
36 21 1
37 21 1
38 21 1
39 21 2
40 21 4
41 21 3
42 21 1
43 21 5
44 21 2
45 21 1
46 21 3
48 21 3
49 21 2
50 21 4
51 21 5
52 21 3
53 21 4
54 21 3
55 21 4
56 21 1
57 21 2
58 21 2
59 21 2
60 21 2
61 21 6
62 21 3
63 21 2
65 21 1
66 21 1
67 21 2
68 21 1
69 21 1
70 21 2
71 21 3
72 21 3
73 21 2
74 21 3
75 21 4
76 21 6
77 21 3
78 21 2
79 21 4
80 21 3
81 21 3
82 21 2
83 21 1
85 21 5
86 21 1
87 21 3
88 21 3
89 21 2
90 21 4
92 21 1
93 21 3
95 21 2
96 21 3
97 21 3
99 21 5
100 21 5
101 21 2
102 21 3
103 21 1
104 21 3
106 21 1
107 21 2
108 21 3
109 21 1
111 21 5
112 21 4
113 21 1
114 21 2
115 21 7
116 21 3
117 21 3
118 21 1
119 21 1
120 21 3
121 21 1
122 21 2
123 21 3
124 21 1
126 21 3
127 21 3
128 21 3
129 21 2
130 21 6
131 21 1
132 21 1
133 21 4
134 21 2
135 21 3
136 21 2
137 21 5
138 21 2
139 21 3
140 21 2
141 21 3
142 21 1
143 21 4
144 21 1
145 21 3
146 21 4
147 21 2
150 21 4
151 21 4
152 21 2
153 21 1
154 21 2
155 21 5
156 21 2
157 21 2
158 21 1
159 21 4
160 21 4
161 21 3
162 21 5
163 21 3
164 21 4
165 21 1
166 21 2
167 21 5
168 21 1
169 21 1
170 21 4
171 21 3
172 21 2
173 21 2
174 21 3
175 21 4
176 21 3
177 21 2
178 21 2
180 21 4
181 21 4
182 21 3
183 21 2
184 21 6
185 21 5
186 21 4
187 21 2
188 21 2
190 21 4
191 21 1
192 21 3
193 21 3
194 21 5
196 21 3
197 21 2
198 21 3
199 21 1
200 21 4
201 21 2
202 21 4
203 21 1
204 21 4
206 21 6
207 21 2
208 21 2
209 21 4
210 21 6
211 21 2
212 21 2
213 21 4
214 21 3
215 21 3
216 21 3
217 21 2
218 21 2
219 21 3
220 21 1
222 21 2
223 21 5
224 21 2
225 21 1
226 21 3
227 21 4
229 21 3
230 21 5
231 21 2
232 21 3
233 21 2
234 21 2
235 21 2
237 21 4
238 21 1
239 21 4
240 21 4
241 21 4
242 21 4
243 21 1
244 21 1
245 21 1
246 21 2
248 21 4
249 21 3
250 21 2
1 22 4
2 22 8
3 22 10
4 22 12
5 22 9
6 22 3
7 22 1
8 22 3
9 22 2
10 22 2
11 22 3
12 22 3
13 22 2
14 22 5
16 22 1
17 22 1
18 22 3
19 22 6
20 22 3
21 22 1
22 22 2
23 22 1
24 22 1
25 22 1
26 22 2
27 22 1
28 22 4
29 22 4
30 22 2
31 22 1
32 22 2
33 22 2
34 22 2
35 22 2
36 22 3
37 22 2
38 22 1
39 22 3
40 22 4
41 22 2
42 22 3
43 22 3
44 22 2
45 22 4
46 22 2
48 22 2
49 22 4
51 22 5
52 22 6
53 22 2
54 22 2
56 22 2
57 22 3
58 22 1
59 22 4
60 22 2
61 22 4
63 22 2
64 22 3
65 22 4
66 22 2
67 22 3
69 22 3
70 22 5
71 22 1
72 22 2
73 22 2
74 22 1
75 22 2
76 22 2
80 22 3
81 22 3
82 22 3
84 22 1
85 22 2
86 22 2
87 22 5
88 22 4
89 22 3
90 22 3
91 22 1
93 22 3
94 22 1
95 22 3
97 22 3
99 22 2
101 22 2
102 22 5
103 22 2
104 22 1
107 22 3
108 22 2
109 22 5
110 22 3
111 22 3
113 22 8
114 22 1
115 22 3
116 22 1
117 22 3
118 22 3
119 22 2
120 22 1
121 22 4
122 22 4
123 22 1
124 22 3
125 22 2
126 22 1
127 22 5
128 22 4
129 22 1
130 22 2
132 22 2
133 22 2
134 22 1
136 22 2
137 22 1
139 22 1
140 22 3
141 22 3
142 22 1
143 22 1
144 22 5
145 22 2
146 22 5
147 22 3
148 22 4
149 22 2
150 22 3
151 22 2
152 22 2
153 22 2
154 22 4
155 22 2
156 22 4
157 22 5
158 22 1
159 22 1
160 22 1
161 22 2
162 22 2
163 22 6
164 22 2
165 22 2
166 22 1
167 22 2
168 22 3
169 22 4
171 22 2
172 22 1
173 22 2
174 22 4
176 22 1
177 22 1
178 22 2
179 22 2
180 22 3
181 22 1
182 22 1
183 22 5
184 22 3
185 22 2
186 22 3
188 22 3
189 22 4
191 22 2
193 22 1
195 22 3
196 22 3
197 22 2
199 22 3
200 22 1
201 22 4
202 22 2
203 22 3
204 22 1
205 22 1
206 22 2
207 22 1
208 22 2
209 22 3
210 22 2
211 22 2
212 22 5
213 22 2
214 22 2
215 22 1
216 22 6
217 22 3
218 22 2
219 22 4
220 22 1
221 22 2
223 22 4
224 22 1
225 22 3
227 22 3
228 22 4
229 22 3
230 22 3
231 22 3
232 22 5
233 22 4
234 22 5
235 22 3
236 22 2
237 22 3
238 22 3
239 22 2
240 22 4
241 22 3
242 22 4
243 22 1
244 22 2
245 22 3
246 22 2
248 22 2
249 22 4
250 22 4
1 23 18
2 23 10
3 23 10
4 23 2
5 23 8
6 23 4
8 23 4
9 23 1
10 23 2
11 23 1
12 23 3
14 23 4
15 23 3
16 23 3
17 23 4
18 23 2
19 23 1
20 23 4
21 23 1
22 23 1
23 23 4
24 23 4
25 23 1
26 23 3
27 23 4
28 23 3
29 23 2
30 23 3
31 23 1
32 23 1
33 23 1
34 23 4
35 23 3
36 23 4
37 23 3
38 23 2
39 23 5
40 23 1
41 23 3
44 23 1
45 23 2
46 23 3
47 23 3
48 23 5
49 23 3
50 23 3
51 23 5
52 23 2
53 23 2
54 23 4
55 23 2
56 23 3
57 23 3
58 23 3
59 23 3
60 23 6
61 23 1
62 23 2
63 23 5
64 23 4
65 23 3
66 23 3
67 23 5
68 23 5
69 23 4
70 23 3
71 23 3
72 23 1
73 23 3
74 23 5
75 23 4
76 23 3
77 23 3
78 23 2
79 23 3
80 23 1
81 23 3
82 23 5
83 23 4
87 23 1
88 23 2
89 23 2
90 23 2
91 23 2
92 23 1
93 23 3
94 23 1
95 23 3
96 23 1
98 23 1
99 23 4
100 23 4
101 23 1
102 23 3
103 23 3
104 23 3
105 23 4
106 23 2
107 23 1
108 23 4
109 23 3
110 23 3
112 23 3
114 23 4
115 23 3
116 23 2
117 23 3
118 23 1
119 23 3
120 23 2
121 23 1
122 23 3
123 23 2
124 23 2
125 23 6
127 23 3
128 23 1
129 23 1
130 23 4
131 23 3
132 23 2
133 23 3
134 23 2
135 23 2
136 23 1
137 23 1
138 23 4
139 23 3
140 23 2
141 23 4
142 23 3
143 23 2
144 23 3
145 23 1
146 23 3
147 23 2
148 23 4
149 23 4
150 23 2
151 23 5
152 23 3
153 23 3
154 23 3
156 23 2
159 23 4
160 23 2
161 23 1
162 23 2
163 23 1
164 23 2
165 23 4
166 23 7
167 23 3
168 23 2
169 23 3
170 23 8
171 23 3
172 23 2
173 23 3
175 23 2
176 23 4
177 23 2
178 23 2
179 23 2
180 23 8
181 23 1
182 23 5
183 23 1
184 23 2
185 23 1
187 23 2
188 23 2
190 23 4
191 23 6
192 23 1
193 23 2
196 23 3
197 23 1
199 23 2
200 23 2
201 23 2
202 23 5
203 23 1
204 23 3
205 23 2
206 23 1
207 23 1
208 23 3
209 23 4
210 23 3
211 23 1
212 23 8
213 23 1
214 23 1
215 23 1
216 23 7
217 23 3
218 23 2
219 23 4
220 23 3
221 23 5
222 23 3
223 23 1
224 23 4
225 23 1
226 23 2
227 23 2
228 23 5
229 23 2
230 23 3
231 23 6
232 23 2
233 23 4
234 23 3
235 23 1
237 23 2
238 23 2
239 23 3
240 23 3
241 23 2
242 23 2
244 23 1
245 23 2
246 23 4
247 23 1
248 23 2
249 23 6
250 23 2
1 24 13
2 24 13
3 24 7
4 24 9
5 24 9
6 24 1
7 24 1
8 24 5
9 24 2
10 24 4
11 24 4
13 24 4
14 24 4
15 24 3
16 24 3
17 24 2
18 24 4
19 24 2
20 24 1
21 24 3
22 24 1
23 24 3
24 24 3
25 24 2
26 24 3
27 24 3
28 24 2
29 24 6
30 24 2
31 24 5
32 24 3
33 24 2
34 24 1
35 24 1
36 24 2
37 24 2
38 24 4
39 24 2
40 24 3
41 24 6
42 24 3
43 24 1
44 24 4
45 24 4
46 24 3
47 24 1
48 24 1
49 24 2
50 24 3
51 24 1
52 24 4
53 24 3
54 24 3
55 24 2
56 24 2
57 24 3
58 24 1
59 24 1
60 24 2
61 24 3
62 24 3
63 24 4
64 24 4
65 24 1
66 24 3
67 24 1
68 24 1
69 24 2
70 24 1
72 24 2
73 24 2
75 24 1
76 24 1
77 24 3
78 24 4
80 24 3
81 24 4
82 24 4
83 24 2
84 24 4
85 24 3
86 24 2
88 24 2
89 24 2
90 24 1
92 24 3
94 24 4
95 24 7
97 24 1
98 24 1
99 24 3
100 24 5
101 24 3
102 24 3
103 24 4
104 24 1
105 24 2
106 24 1
107 24 3
108 24 4
109 24 3
110 24 1
111 24 3
113 24 5
114 24 2
115 24 2
116 24 5
118 24 8
119 24 4
120 24 2
121 24 4
123 24 1
125 24 5
126 24 2
127 24 4
128 24 4
129 24 1
131 24 6
132 24 2
133 24 2
134 24 2
135 24 1
136 24 4
137 24 2
138 24 5
139 24 3
140 24 3
141 24 2
142 24 2
143 24 3
144 24 1
145 24 5
146 24 2
147 24 2
148 24 3
150 24 2
151 24 8
152 24 3
153 24 2
154 24 1
155 24 2
156 24 2
157 24 3
158 24 1
159 24 4
160 24 5
161 24 2
162 24 3
163 24 1
164 24 2
165 24 1
166 24 1
167 24 3
168 24 3
169 24 2
170 24 2
171 24 3
172 24 2
173 24 3
174 24 5
175 24 4
176 24 4
177 24 3
178 24 3
179 24 5
180 24 4
181 24 2
182 24 1
183 24 2
184 24 5
186 24 1
187 24 2
188 24 4
190 24 2
191 24 2
192 24 3
193 24 4
194 24 1
195 24 2
196 24 2
197 24 1
198 24 2
199 24 3
200 24 2
201 24 2
202 24 3
203 24 2
204 24 2
205 24 1
206 24 5
207 24 3
208 24 4
209 24 4
210 24 6
212 24 2
213 24 1
214 24 5
215 24 3
216 24 1
217 24 1
218 24 6
219 24 2
220 24 7
221 24 3
222 24 3
223 24 5
224 24 1
225 24 3
226 24 2
227 24 2
228 24 1
229 24 4
230 24 5
231 24 3
233 24 4
234 24 1
235 24 4
236 24 3
237 24 2
238 24 3
239 24 1
240 24 1
241 24 5
242 24 2
244 24 2
245 24 2
246 24 2
247 24 4
248 24 3
249 24 2
250 24 5
1 25 9
2 25 11
3 25 12
4 25 6
5 25 15
6 25 4
7 25 3
8 25 3
9 25 4
10 25 6
11 25 3
12 25 4
13 25 1
14 25 3
16 25 7
17 25 4
19 25 1
21 25 6
22 25 2
23 25 2
24 25 1
25 25 4
26 25 2
27 25 1
28 25 6
29 25 3
30 25 2
31 25 4
32 25 3
33 25 2
34 25 1
35 25 3
36 25 2
37 25 7
38 25 3
39 25 3
40 25 2
41 25 2
42 25 5
43 25 3
44 25 2
45 25 1
46 25 2
47 25 2
48 25 4
49 25 5
50 25 2
51 25 2
52 25 4
53 25 5
54 25 5
55 25 4
56 25 1
57 25 4
59 25 3
60 25 1
61 25 1
62 25 3
63 25 4
64 25 4
66 25 6
67 25 4
68 25 3
69 25 1
70 25 3
71 25 5
72 25 2
73 25 1
74 25 6
75 25 3
76 25 4
77 25 2
79 25 1
80 25 2
81 25 2
82 25 1
83 25 3
84 25 1
85 25 2
86 25 2
87 25 1
88 25 1
90 25 4
91 25 1
92 25 1
93 25 1
94 25 4
96 25 2
98 25 1
99 25 2
100 25 2
101 25 4
102 25 5
103 25 3
104 25 2
105 25 3
106 25 1
107 25 1
108 25 1
109 25 2
110 25 3
112 25 2
113 25 2
114 25 4
115 25 2
116 25 3
117 25 5
118 25 1
119 25 1
120 25 1
121 25 4
122 25 3
123 25 4
124 25 4
125 25 3
126 25 2
127 25 1
128 25 2
131 25 4
132 25 1
133 25 2
134 25 1
135 25 4
136 25 3
137 25 1
138 25 2
139 25 2
141 25 4
142 25 6
143 25 3
144 25 1
145 25 3
146 25 2
147 25 1
148 25 5
149 25 2
150 25 3
151 25 2
154 25 2
155 25 2
156 25 2
157 25 5
158 25 5
159 25 3
160 25 3
161 25 1
162 25 4
163 25 2
164 25 3
165 25 4
166 25 3
167 25 6
168 25 1
169 25 4
170 25 1
171 25 2
172 25 5
175 25 2
176 25 3
177 25 2
178 25 2
179 25 2
180 25 4
181 25 1
182 25 2
183 25 1
184 25 2
185 25 1
186 25 3
187 25 2
188 25 1
189 25 3
190 25 3
192 25 3
193 25 5
194 25 4
195 25 1
196 25 3
197 25 2
198 25 1
199 25 5
200 25 1
202 25 4
203 25 2
204 25 1
205 25 2
206 25 1
208 25 3
209 25 1
210 25 2
211 25 1
212 25 1
213 25 3
214 25 2
215 25 4
216 25 2
217 25 3
218 25 3
219 25 1
221 25 3
222 25 2
223 25 2
224 25 2
225 25 3
226 25 2
227 25 2
228 25 1
229 25 2
230 25 4
231 25 2
232 25 2
233 25 1
234 25 1
235 25 1
236 25 3
237 25 2
240 25 2
241 25 2
242 25 5
243 25 1
244 25 1
245 25 4
247 25 2
248 25 3
249 25 7
250 25 4
1 26 13
2 26 11
3 26 13
4 26 10
5 26 13
6 26 1
7 26 1
8 26 4
9 26 1
10 26 3
11 26 3
12 26 3
13 26 3
14 26 3
15 26 1
16 26 2
17 26 2
18 26 1
19 26 3
20 26 2
21 26 3
22 26 2
23 26 1
24 26 3
25 26 2
26 26 1
27 26 2
28 26 3
29 26 2
30 26 1
31 26 1
32 26 2
33 26 1
34 26 3
35 26 4
36 26 3
37 26 2
38 26 5
39 26 3
40 26 2
41 26 1
42 26 1
44 26 2
45 26 1
46 26 5
47 26 1
48 26 2
49 26 3
50 26 4
51 26 1
53 26 5
54 26 3
55 26 1
56 26 1
58 26 1
59 26 5
60 26 3
61 26 2
62 26 2
63 26 3
64 26 2
65 26 2
66 26 2
67 26 5
68 26 3
70 26 1
71 26 2
72 26 4
73 26 2
74 26 4
75 26 4
76 26 6
77 26 2
78 26 1
79 26 1
80 26 5
81 26 1
82 26 3
83 26 1
84 26 4
85 26 4
86 26 3
87 26 4
88 26 3
89 26 3
90 26 1
91 26 3
92 26 1
93 26 5
94 26 3
95 26 2
96 26 2
97 26 1
98 26 4
99 26 2
100 26 4
101 26 1
102 26 2
103 26 3
104 26 5
105 26 4
106 26 3
107 26 1
108 26 1
109 26 2
110 26 4
111 26 6
112 26 2
114 26 4
116 26 2
117 26 1
118 26 4
119 26 5
120 26 1
121 26 1
122 26 1
123 26 1
125 26 1
126 26 2
127 26 2
128 26 4
129 26 2
130 26 1
131 26 3
132 26 3
133 26 3
134 26 1
135 26 2
136 26 2
137 26 2
138 26 2
140 26 2
141 26 2
142 26 2
143 26 1
144 26 2
145 26 2
147 26 2
148 26 2
149 26 3
150 26 2
151 26 3
152 26 1
153 26 2
154 26 6
155 26 4
157 26 3
159 26 3
160 26 2
161 26 3
162 26 3
163 26 3
164 26 3
165 26 4
166 26 1
167 26 4
169 26 2
170 26 3
171 26 3
172 26 1
173 26 5
174 26 1
175 26 5
176 26 1
177 26 3
178 26 2
179 26 2
180 26 4
181 26 3
182 26 3
183 26 2
184 26 1
185 26 1
186 26 4
187 26 1
188 26 2
189 26 3
191 26 2
192 26 1
193 26 2
194 26 1
195 26 1
196 26 2
197 26 2
198 26 3
199 26 4
200 26 1
201 26 3
202 26 3
203 26 3
204 26 3
205 26 1
206 26 1
208 26 1
209 26 2
210 26 3
211 26 2
212 26 3
213 26 2
215 26 3
216 26 5
217 26 2
218 26 2
219 26 3
220 26 2
221 26 5
222 26 5
223 26 3
225 26 2
226 26 1
227 26 5
228 26 5
229 26 4
230 26 4
232 26 5
233 26 4
234 26 4
235 26 3
236 26 3
238 26 2
239 26 1
240 26 3
243 26 3
245 26 2
247 26 1
248 26 3
249 26 4
250 26 2
1 27 6
2 27 13
3 27 6
4 27 11
5 27 14
6 27 2
7 27 2
8 27 3
9 27 3
10 27 1
11 27 4
12 27 4
13 27 1
14 27 2
15 27 3
16 27 2
17 27 1
18 27 6
20 27 1
21 27 2
22 27 1
23 27 3
24 27 3
25 27 2
26 27 2
27 27 3
28 27 3
29 27 6
30 27 2
31 27 4
32 27 1
33 27 1
34 27 2
35 27 3
36 27 5
37 27 2
38 27 2
39 27 3
40 27 2
41 27 1
42 27 3
44 27 1
45 27 4
46 27 1
47 27 2
48 27 2
50 27 1
51 27 3
52 27 3
53 27 2
54 27 2
55 27 1
56 27 3
57 27 3
58 27 2
60 27 6
62 27 4
63 27 2
64 27 5
65 27 1
66 27 4
67 27 1
68 27 2
69 27 3
71 27 3
72 27 4
73 27 2
74 27 4
75 27 3
76 27 4
77 27 3
78 27 4
79 27 4
80 27 1
81 27 4
82 27 1
83 27 3
84 27 1
85 27 5
86 27 2
87 27 3
88 27 2
89 27 4
90 27 2
92 27 3
94 27 3
95 27 2
96 27 2
97 27 6
98 27 1
99 27 4
100 27 3
101 27 2
102 27 2
103 27 3
105 27 4
106 27 4
108 27 5
109 27 2
110 27 4
111 27 3
112 27 2
113 27 3
114 27 3
115 27 4
116 27 6
117 27 3
118 27 4
119 27 5
120 27 3
121 27 5
122 27 4
123 27 1
124 27 2
125 27 1
126 27 2
127 27 3
128 27 3
129 27 3
130 27 4
131 27 2
132 27 5
133 27 3
134 27 3
135 27 2
136 27 3
137 27 2
138 27 1
139 27 3
141 27 2
142 27 2
143 27 3
144 27 4
145 27 2
146 27 3
147 27 3
148 27 3
149 27 3
150 27 6
151 27 2
152 27 3
153 27 2
154 27 3
155 27 2
156 27 5
157 27 2
158 27 3
159 27 3
160 27 3
161 27 4
162 27 1
163 27 2
164 27 1
165 27 3
167 27 2
168 27 4
169 27 3
171 27 1
172 27 3
173 27 2
174 27 2
175 27 2
176 27 1
177 27 1
178 27 1
179 27 1
180 27 6
181 27 3
182 27 3
183 27 1
184 27 1
185 27 4
186 27 1
187 27 2
188 27 3
189 27 3
190 27 6
191 27 5
192 27 2
193 27 5
194 27 5
195 27 2
196 27 3
197 27 3
198 27 1
199 27 2
200 27 4
201 27 1
202 27 1
203 27 1
205 27 6
206 27 5
207 27 1
208 27 3
209 27 4
211 27 4
212 27 4
214 27 4
215 27 1
216 27 2
217 27 3
218 27 1
219 27 1
220 27 3
222 27 4
223 27 4
224 27 3
225 27 2
226 27 3
227 27 3
228 27 3
229 27 3
230 27 2
231 27 2
232 27 2
233 27 3
234 27 2
235 27 1
236 27 3
237 27 2
239 27 4
240 27 4
241 27 4
242 27 4
243 27 2
244 27 2
246 27 1
247 27 5
249 27 4
250 27 2
1 28 8
2 28 6
3 28 13
4 28 15
5 28 10
6 28 2
7 28 7
8 28 3
9 28 2
10 28 1
11 28 4
12 28 3
13 28 4
14 28 5
15 28 1
16 28 3
19 28 3
20 28 3
21 28 2
22 28 1
23 28 5
24 28 2
25 28 2
26 28 1
27 28 4
28 28 3
29 28 5
30 28 3
31 28 2
32 28 3
33 28 3
34 28 3
35 28 2
36 28 2
37 28 3
38 28 6
39 28 4
40 28 2
41 28 5
43 28 1
44 28 2
46 28 1
47 28 3
49 28 3
50 28 3
51 28 4
53 28 4
54 28 1
55 28 5
56 28 1
57 28 2
58 28 1
59 28 4
60 28 2
61 28 2
62 28 2
63 28 3
64 28 2
65 28 1
66 28 2
67 28 2
68 28 3
69 28 5
70 28 3
71 28 1
72 28 5
73 28 3
74 28 2
75 28 2
76 28 1
77 28 3
78 28 2
79 28 3
80 28 4
81 28 2
82 28 3
83 28 4
84 28 2
85 28 4
86 28 3
88 28 5
89 28 1
90 28 1
91 28 6
92 28 2
93 28 2
94 28 2
95 28 2
97 28 1
99 28 2
100 28 1
101 28 5
102 28 3
103 28 2
104 28 4
105 28 3
106 28 3
107 28 3
108 28 2
109 28 3
110 28 3
111 28 1
112 28 4
113 28 5
114 28 3
116 28 3
117 28 2
118 28 1
119 28 3
120 28 2
121 28 3
122 28 5
123 28 2
124 28 4
125 28 4
126 28 2
127 28 3
128 28 2
129 28 2
130 28 3
131 28 4
133 28 5
134 28 4
135 28 2
136 28 2
137 28 1
138 28 5
139 28 2
140 28 1
141 28 7
142 28 4
143 28 6
144 28 5
145 28 2
146 28 3
147 28 2
148 28 2
149 28 2
150 28 2
151 28 3
152 28 2
153 28 2
154 28 1
155 28 1
156 28 2
157 28 2
158 28 1
159 28 1
160 28 4
161 28 5
162 28 5
163 28 5
164 28 3
165 28 2
166 28 2
167 28 2
168 28 4
169 28 2
170 28 1
171 28 2
172 28 5
173 28 4
174 28 1
175 28 2
176 28 3
177 28 1
179 28 2
180 28 2
181 28 1
182 28 4
183 28 3
184 28 1
185 28 5
186 28 2
187 28 2
188 28 4
189 28 4
190 28 1
191 28 1
192 28 3
193 28 1
194 28 3
195 28 2
196 28 3
197 28 1
198 28 1
199 28 3
200 28 1
203 28 1
204 28 2
206 28 2
207 28 3
208 28 3
209 28 3
210 28 4
211 28 1
214 28 5
215 28 4
217 28 3
218 28 1
219 28 1
220 28 4
221 28 4
222 28 2
223 28 6
224 28 3
225 28 2
226 28 5
227 28 1
228 28 5
229 28 6
230 28 2
231 28 4
232 28 4
233 28 1
236 28 3
237 28 6
238 28 3
239 28 2
241 28 3
242 28 2
243 28 4
244 28 1
245 28 4
246 28 2
247 28 3
248 28 4
249 28 1
250 28 2
1 29 7
2 29 6
3 29 11
4 29 9
5 29 12
6 29 2
7 29 6
8 29 2
9 29 2
10 29 4
11 29 3
13 29 2
14 29 3
15 29 6
16 29 3
17 29 5
18 29 1
19 29 4
20 29 4
21 29 2
22 29 2
23 29 2
24 29 6
25 29 3
26 29 3
27 29 2
28 29 5
29 29 2
30 29 4
34 29 2
35 29 2
36 29 1
37 29 7
39 29 5
40 29 7
42 29 3
43 29 2
44 29 1
45 29 1
46 29 2
47 29 1
48 29 2
49 29 1
50 29 2
51 29 3
52 29 3
53 29 2
54 29 2
55 29 4
56 29 4
57 29 3
58 29 1
59 29 2
60 29 7
61 29 5
62 29 3
63 29 3
64 29 2
65 29 3
66 29 5
67 29 1
68 29 2
69 29 6
70 29 2
72 29 4
73 29 5
75 29 1
76 29 1
77 29 2
78 29 3
79 29 3
80 29 6
81 29 3
82 29 3
84 29 3
85 29 1
86 29 2
87 29 2
88 29 4
89 29 2
90 29 2
91 29 4
92 29 2
93 29 2
94 29 3
95 29 2
96 29 3
97 29 1
98 29 3
99 29 5
101 29 4
102 29 1
103 29 4
104 29 1
105 29 2
106 29 4
107 29 2
108 29 1
109 29 2
110 29 3
111 29 2
112 29 3
114 29 3
115 29 4
116 29 4
117 29 2
118 29 3
119 29 5
120 29 1
121 29 1
122 29 4
123 29 2
125 29 2
126 29 4
127 29 2
128 29 3
129 29 3
130 29 4
131 29 1
132 29 5
133 29 2
134 29 1
136 29 1
137 29 1
139 29 2
140 29 2
141 29 5
142 29 6
143 29 1
144 29 2
145 29 2
146 29 1
147 29 2
148 29 1
149 29 2
150 29 3
151 29 1
152 29 1
153 29 2
154 29 2
155 29 1
156 29 2
157 29 1
158 29 4
159 29 1
160 29 6
161 29 2
162 29 4
164 29 5
165 29 5
166 29 1
167 29 5
168 29 2
169 29 3
170 29 2
171 29 3
172 29 3
173 29 4
174 29 1
175 29 2
176 29 2
177 29 2
179 29 2
180 29 3
182 29 2
183 29 2
184 29 2
185 29 3
186 29 1
187 29 1
188 29 1
189 29 1
190 29 4
191 29 5
192 29 1
194 29 1
195 29 4
196 29 3
197 29 3
199 29 2
200 29 2
201 29 2
202 29 5
203 29 5
204 29 2
205 29 2
206 29 4
207 29 3
208 29 1
209 29 3
210 29 1
211 29 1
212 29 5
213 29 5
214 29 1
215 29 2
216 29 2
217 29 3
218 29 3
219 29 2
220 29 3
221 29 3
222 29 3
223 29 3
224 29 1
225 29 2
226 29 2
227 29 1
228 29 6
229 29 5
230 29 3
231 29 1
232 29 1
233 29 4
234 29 1
235 29 2
236 29 5
237 29 6
238 29 2
239 29 2
240 29 3
241 29 1
242 29 1
243 29 3
245 29 1
246 29 3
247 29 2
248 29 4
249 29 3
250 29 2
1 30 16
2 30 7
3 30 7
4 30 7
5 30 14
6 30 2
7 30 2
8 30 4
9 30 4
10 30 2
11 30 2
12 30 3
13 30 2
14 30 4
15 30 3
16 30 3
17 30 4
18 30 3
19 30 6
20 30 2
21 30 3
22 30 4
23 30 3
24 30 2
25 30 2
26 30 5
27 30 3
28 30 2
29 30 6
30 30 1
31 30 3
32 30 1
34 30 1
35 30 1
36 30 1
37 30 3
38 30 2
39 30 2
40 30 2
41 30 3
42 30 2
43 30 4
44 30 2
45 30 2
46 30 2
48 30 6
49 30 3
50 30 2
51 30 2
53 30 1
54 30 2
55 30 2
56 30 5
57 30 5
58 30 6
59 30 3
60 30 5
61 30 1
62 30 3
63 30 4
64 30 3
65 30 5
66 30 3
67 30 5
68 30 1
69 30 5
70 30 2
71 30 3
73 30 1
74 30 2
75 30 3
76 30 3
77 30 3
78 30 5
79 30 2
80 30 3
81 30 5
82 30 4
83 30 3
84 30 3
85 30 1
86 30 5
87 30 2
89 30 7
90 30 1
91 30 4
92 30 3
93 30 1
94 30 2
95 30 1
96 30 3
97 30 2
98 30 1
99 30 4
100 30 3
101 30 4
102 30 3
103 30 2
104 30 2
105 30 2
106 30 2
107 30 2
108 30 2
109 30 3
110 30 1
111 30 2
112 30 5
113 30 1
114 30 2
115 30 2
117 30 2
118 30 5
119 30 5
120 30 2
122 30 4
123 30 1
124 30 3
125 30 2
126 30 3
127 30 5
128 30 1
130 30 6
131 30 4
132 30 5
133 30 1
134 30 1
135 30 2
136 30 2
137 30 2
138 30 1
139 30 5
140 30 2
141 30 3
142 30 1
143 30 4
144 30 6
146 30 5
147 30 6
148 30 2
149 30 1
150 30 5
151 30 4
152 30 1
153 30 1
154 30 1
155 30 3
156 30 1
157 30 1
158 30 2
160 30 4
161 30 3
163 30 4
164 30 4
165 30 2
166 30 2
167 30 1
168 30 2
169 30 4
170 30 5
171 30 5
172 30 2
173 30 1
174 30 1
175 30 3
176 30 3
177 30 3
178 30 2
179 30 2
180 30 3
181 30 1
182 30 2
183 30 5
184 30 3
185 30 3
186 30 2
187 30 3
188 30 3
189 30 3
190 30 3
191 30 3
192 30 2
193 30 4
194 30 2
196 30 2
197 30 3
198 30 5
199 30 1
200 30 2
201 30 3
203 30 3
204 30 5
205 30 1
206 30 2
207 30 3
208 30 3
209 30 3
210 30 2
211 30 1
212 30 2
213 30 3
214 30 2
215 30 2
216 30 4
217 30 2
218 30 1
219 30 1
220 30 4
221 30 1
222 30 1
223 30 1
224 30 3
225 30 2
226 30 4
227 30 3
228 30 1
229 30 2
230 30 3
231 30 3
232 30 2
233 30 1
234 30 1
235 30 3
236 30 1
237 30 4
238 30 4
239 30 3
240 30 4
242 30 3
243 30 4
244 30 2
245 30 3
246 30 1
247 30 3
248 30 4
250 30 6
1 31 14
2 31 4
3 31 15
4 31 11
5 31 11
6 31 1
7 31 1
8 31 3
9 31 3
10 31 5
11 31 4
12 31 1
13 31 2
14 31 1
15 31 1
16 31 1
17 31 5
18 31 2
20 31 2
21 31 1
23 31 5
24 31 2
25 31 2
26 31 5
27 31 3
29 31 1
30 31 2
31 31 2
32 31 4
33 31 5
34 31 2
35 31 4
37 31 5
38 31 1
39 31 4
40 31 3
41 31 2
42 31 1
43 31 2
44 31 3
45 31 2
46 31 3
47 31 4
48 31 2
49 31 3
50 31 2
53 31 3
54 31 4
55 31 2
56 31 2
57 31 4
58 31 4
59 31 4
60 31 3
61 31 3
62 31 1
63 31 4
64 31 4
65 31 1
67 31 3
68 31 2
69 31 3
70 31 4
71 31 1
73 31 4
74 31 1
75 31 2
76 31 6
77 31 3
78 31 2
79 31 2
80 31 1
81 31 3
82 31 1
83 31 4
84 31 5
85 31 3
86 31 4
87 31 2
88 31 2
89 31 4
90 31 2
91 31 3
92 31 4
93 31 2
94 31 3
95 31 2
96 31 2
97 31 1
98 31 5
99 31 1
100 31 1
101 31 2
102 31 5
103 31 1
104 31 3
105 31 4
106 31 4
107 31 2
108 31 1
109 31 1
110 31 2
112 31 2
114 31 2
115 31 3
116 31 4
117 31 2
118 31 2
119 31 4
120 31 3
121 31 1
122 31 1
123 31 3
124 31 1
125 31 3
126 31 4
127 31 3
128 31 1
129 31 1
130 31 1
131 31 6
132 31 1
133 31 1
134 31 2
135 31 2
136 31 5
137 31 1
138 31 4
139 31 4
140 31 1
142 31 1
143 31 1
144 31 7
145 31 5
146 31 1
147 31 2
148 31 3
149 31 1
150 31 4
151 31 3
152 31 2
153 31 3
154 31 4
155 31 2
156 31 2
158 31 7
159 31 1
160 31 1
161 31 3
162 31 1
163 31 2
164 31 4
165 31 1
166 31 2
167 31 2
168 31 5
169 31 1
170 31 4
171 31 3
172 31 3
173 31 2
174 31 4
175 31 2
176 31 3
177 31 5
178 31 2
179 31 4
180 31 3
182 31 5
183 31 1
184 31 5
185 31 1
186 31 2
187 31 6
188 31 3
189 31 6
191 31 2
192 31 3
193 31 3
194 31 2
195 31 5
196 31 5
197 31 3
198 31 4
199 31 1
200 31 3
201 31 2
204 31 1
205 31 5
206 31 3
208 31 2
209 31 3
210 31 4
212 31 2
213 31 2
214 31 2
216 31 3
217 31 1
219 31 3
220 31 3
221 31 6
222 31 1
224 31 2
225 31 4
226 31 3
227 31 3
228 31 2
229 31 1
231 31 5
232 31 4
233 31 3
234 31 1
235 31 3
236 31 1
237 31 1
238 31 1
239 31 5
240 31 2
241 31 2
242 31 4
243 31 3
244 31 3
245 31 2
246 31 4
247 31 6
248 31 4
249 31 6
250 31 2
1 32 8
2 32 11
3 32 14
4 32 4
5 32 20
6 32 4
7 32 3
8 32 2
9 32 4
10 32 5
11 32 2
12 32 1
13 32 3
14 32 3
15 32 1
16 32 2
17 32 3
18 32 2
19 32 2
20 32 2
21 32 4
22 32 2
23 32 3
24 32 3
25 32 3
26 32 1
27 32 1
28 32 2
30 32 1
31 32 3
32 32 2
33 32 4
34 32 4
35 32 4
36 32 2
37 32 3
38 32 2
39 32 2
40 32 3
41 32 3
42 32 3
43 32 4
44 32 1
45 32 3
46 32 3
47 32 2
48 32 2
49 32 1
50 32 1
51 32 3
52 32 4
53 32 3
54 32 3
55 32 3
56 32 1
57 32 2
59 32 3
60 32 3
61 32 3
62 32 1
64 32 1
65 32 4
67 32 3
68 32 5
69 32 2
70 32 2
71 32 2
72 32 2
73 32 4
74 32 2
75 32 2
76 32 4
77 32 6
78 32 2
79 32 4
80 32 1
81 32 1
82 32 2
83 32 6
84 32 1
85 32 1
86 32 4
87 32 2
88 32 7
89 32 4
90 32 1
91 32 1
92 32 2
93 32 3
94 32 3
95 32 3
96 32 2
97 32 1
98 32 4
99 32 1
100 32 2
101 32 2
102 32 2
103 32 4
105 32 3
107 32 1
109 32 1
110 32 4
111 32 4
113 32 3
114 32 4
115 32 1
116 32 8
117 32 4
118 32 3
119 32 1
120 32 3
121 32 1
123 32 2
124 32 2
125 32 3
126 32 3
127 32 10
128 32 3
129 32 1
130 32 2
131 32 3
132 32 2
133 32 4
134 32 1
135 32 3
136 32 5
138 32 4
139 32 4
140 32 2
141 32 1
142 32 4
143 32 4
144 32 1
145 32 4
146 32 1
147 32 2
148 32 4
149 32 1
150 32 1
151 32 2
152 32 4
153 32 4
154 32 3
155 32 2
156 32 2
157 32 3
158 32 4
159 32 2
160 32 2
161 32 2
162 32 5
163 32 5
164 32 1
165 32 2
166 32 4
167 32 2
168 32 3
169 32 3
170 32 1
171 32 1
172 32 2
173 32 1
174 32 2
176 32 3
177 32 4
178 32 4
179 32 3
180 32 6
181 32 1
182 32 1
183 32 3
184 32 2
185 32 2
186 32 1
187 32 2
188 32 7
189 32 1
190 32 6
191 32 1
192 32 1
193 32 2
194 32 1
195 32 2
196 32 3
197 32 1
198 32 1
200 32 6
202 32 1
203 32 3
204 32 3
205 32 4
206 32 3
207 32 2
208 32 1
209 32 1
210 32 1
211 32 6
212 32 2
213 32 3
215 32 2
216 32 4
217 32 3
218 32 2
219 32 3
220 32 1
221 32 1
222 32 1
223 32 2
224 32 1
225 32 4
226 32 3
227 32 3
228 32 2
229 32 4
230 32 3
231 32 5
232 32 2
233 32 2
234 32 4
235 32 2
236 32 4
237 32 1
238 32 2
239 32 3
240 32 1
241 32 3
242 32 3
243 32 3
244 32 2
245 32 3
246 32 3
247 32 1
248 32 2
249 32 2
250 32 2
1 33 16
2 33 11
3 33 7
4 33 13
5 33 6
6 33 5
7 33 2
9 33 1
10 33 2
11 33 1
12 33 3
13 33 3
14 33 3
15 33 4
16 33 5
17 33 3
18 33 2
19 33 4
20 33 5
21 33 1
22 33 3
23 33 1
24 33 2
25 33 2
26 33 2
27 33 1
28 33 3
29 33 1
30 33 1
31 33 1
32 33 2
33 33 2
34 33 2
35 33 1
36 33 3
38 33 2
39 33 4
40 33 5
41 33 1
42 33 3
43 33 4
44 33 2
45 33 5
46 33 3
48 33 1
49 33 5
50 33 2
51 33 1
52 33 2
53 33 2
54 33 4
55 33 2
56 33 1
57 33 6
58 33 1
60 33 3
61 33 4
62 33 2
63 33 3
64 33 3
65 33 1
67 33 2
68 33 3
69 33 1
70 33 1
71 33 2
72 33 7
73 33 1
74 33 1
75 33 2
76 33 3
77 33 1
78 33 3
79 33 3
80 33 5
83 33 3
84 33 4
86 33 1
87 33 2
88 33 5
89 33 3
90 33 1
91 33 5
92 33 5
93 33 1
94 33 2
95 33 4
96 33 2
99 33 2
100 33 5
101 33 4
102 33 2
103 33 4
104 33 1
106 33 1
107 33 1
108 33 4
109 33 3
110 33 1
111 33 5
113 33 4
114 33 1
116 33 2
117 33 3
118 33 3
119 33 2
120 33 3
121 33 2
122 33 3
123 33 2
124 33 5
125 33 2
127 33 2
128 33 1
129 33 2
130 33 2
131 33 1
132 33 4
134 33 2
135 33 5
136 33 1
137 33 7
138 33 2
139 33 2
140 33 2
141 33 3
142 33 3
143 33 5
144 33 3
145 33 3
146 33 3
147 33 2
148 33 1
149 33 2
150 33 4
151 33 3
152 33 4
154 33 4
155 33 1
156 33 1
157 33 3
158 33 1
159 33 6
160 33 7
161 33 1
162 33 4
163 33 2
164 33 3
165 33 4
166 33 3
167 33 4
168 33 2
169 33 2
170 33 3
171 33 3
172 33 3
173 33 5
174 33 4
175 33 1
176 33 3
178 33 3
179 33 1
180 33 3
181 33 2
182 33 5
183 33 5
184 33 2
185 33 1
186 33 6
187 33 1
188 33 1
189 33 1
190 33 1
191 33 3
192 33 4
193 33 1
194 33 4
195 33 2
196 33 3
197 33 5
198 33 1
199 33 6
200 33 3
201 33 2
202 33 5
203 33 2
204 33 2
205 33 1
206 33 2
207 33 2
209 33 5
210 33 3
211 33 1
212 33 3
213 33 1
214 33 2
215 33 5
217 33 2
218 33 2
219 33 3
220 33 3
221 33 5
222 33 5
223 33 1
224 33 4
226 33 1
228 33 1
229 33 2
230 33 3
231 33 4
232 33 3
233 33 4
234 33 1
235 33 6
236 33 1
237 33 5
238 33 1
239 33 3
240 33 4
241 33 2
242 33 4
243 33 2
244 33 4
245 33 1
246 33 3
247 33 8
248 33 3
249 33 3
250 33 4
1 34 11
2 34 9
3 34 10
4 34 14
5 34 12
6 34 1
7 34 1
8 34 2
9 34 1
10 34 3
11 34 4
12 34 5
14 34 2
15 34 4
16 34 2
17 34 2
18 34 2
20 34 2
21 34 2
22 34 5
23 34 6
24 34 4
25 34 6
26 34 3
28 34 3
30 34 2
31 34 5
32 34 3
33 34 2
34 34 3
35 34 2
36 34 3
37 34 2
38 34 2
39 34 2
40 34 2
41 34 4
42 34 3
44 34 2
45 34 2
46 34 3
47 34 4
49 34 2
50 34 2
51 34 1
52 34 2
53 34 1
54 34 1
55 34 3
56 34 4
57 34 4
58 34 1
59 34 2
60 34 1
61 34 1
62 34 5
63 34 3
65 34 1
66 34 4
67 34 3
68 34 4
69 34 1
70 34 2
71 34 2
72 34 3
73 34 5
74 34 5
75 34 3
76 34 1
78 34 2
79 34 3
80 34 1
81 34 1
83 34 5
84 34 4
85 34 6
86 34 1
87 34 3
88 34 3
89 34 2
90 34 1
91 34 3
92 34 4
94 34 5
95 34 3
96 34 2
97 34 2
98 34 4
99 34 3
100 34 4
101 34 1
102 34 2
103 34 5
104 34 2
105 34 3
106 34 2
107 34 4
108 34 5
109 34 3
110 34 1
111 34 1
112 34 4
113 34 2
114 34 3
117 34 2
118 34 3
119 34 3
120 34 2
121 34 2
122 34 2
123 34 3
125 34 2
126 34 4
127 34 3
128 34 2
129 34 3
130 34 3
131 34 3
133 34 3
134 34 3
135 34 5
136 34 2
137 34 1
138 34 2
139 34 2
140 34 3
141 34 5
143 34 4
144 34 3
145 34 4
146 34 2
147 34 4
148 34 4
149 34 2
150 34 2
151 34 2
152 34 2
153 34 2
154 34 8
155 34 3
156 34 1
157 34 4
158 34 2
159 34 3
160 34 2
161 34 3
162 34 1
163 34 2
164 34 4
166 34 3
167 34 3
168 34 2
169 34 4
170 34 2
172 34 5
173 34 4
174 34 3
175 34 5
176 34 2
177 34 4
178 34 2
179 34 2
180 34 4
181 34 5
182 34 3
183 34 3
184 34 4
185 34 5
186 34 3
187 34 3
188 34 5
189 34 3
190 34 3
191 34 2
192 34 3
193 34 2
194 34 1
195 34 1
196 34 3
197 34 1
198 34 1
199 34 1
200 34 2
201 34 2
202 34 1
203 34 1
204 34 1
205 34 3
206 34 2
207 34 8
208 34 2
209 34 3
210 34 2
211 34 2
212 34 2
214 34 1
215 34 4
216 34 1
217 34 2
218 34 3
219 34 2
220 34 1
221 34 2
222 34 1
223 34 3
224 34 1
225 34 2
226 34 2
227 34 2
228 34 2
229 34 3
230 34 3
231 34 1
232 34 1
234 34 2
235 34 5
236 34 4
238 34 4
239 34 4
241 34 3
242 34 1
243 34 7
244 34 3
245 34 3
246 34 1
248 34 1
249 34 2
250 34 2
1 35 8
2 35 15
3 35 13
4 35 9
5 35 10
6 35 3
7 35 2
8 35 1
9 35 2
10 35 2
11 35 4
12 35 2
14 35 1
16 35 3
17 35 3
18 35 4
19 35 2
20 35 2
21 35 2
23 35 4
24 35 5
25 35 1
26 35 1
27 35 3
29 35 1
30 35 3
31 35 4
32 35 2
33 35 3
34 35 4
35 35 1
36 35 1
37 35 1
38 35 3
39 35 1
40 35 3
41 35 1
42 35 1
43 35 1
44 35 2
45 35 2
46 35 2
48 35 5
49 35 1
50 35 3
51 35 4
52 35 3
53 35 2
54 35 6
55 35 3
56 35 3
57 35 5
58 35 4
59 35 2
60 35 4
61 35 1
62 35 1
63 35 4
64 35 2
65 35 5
66 35 4
67 35 1
68 35 2
69 35 4
70 35 3
71 35 3
72 35 2
73 35 4
74 35 2
75 35 3
76 35 4
77 35 3
78 35 4
79 35 3
80 35 2
81 35 2
82 35 1
83 35 1
84 35 2
85 35 4
86 35 4
87 35 3
88 35 1
89 35 2
91 35 5
92 35 5
93 35 1
94 35 3
95 35 2
96 35 1
97 35 4
98 35 3
99 35 1
100 35 4
101 35 2
102 35 3
103 35 5
104 35 1
105 35 1
106 35 2
107 35 4
108 35 1
109 35 2
111 35 2
112 35 3
113 35 3
114 35 1
115 35 1
116 35 4
117 35 5
118 35 4
119 35 4
121 35 2
122 35 3
123 35 2
124 35 3
125 35 1
126 35 3
127 35 2
128 35 1
129 35 2
130 35 2
131 35 3
132 35 2
133 35 2
134 35 3
135 35 2
136 35 3
137 35 5
138 35 1
139 35 1
140 35 1
142 35 1
143 35 4
144 35 2
145 35 4
147 35 2
149 35 1
150 35 2
151 35 3
152 35 5
153 35 3
154 35 3
155 35 2
156 35 5
157 35 2
158 35 2
160 35 1
161 35 3
162 35 3
163 35 1
165 35 5
166 35 1
167 35 3
168 35 8
169 35 2
170 35 7
171 35 5
172 35 5
173 35 3
174 35 1
175 35 2
176 35 3
177 35 2
178 35 2
180 35 2
181 35 3
182 35 1
184 35 2
186 35 1
187 35 3
188 35 2
189 35 3
190 35 3
191 35 5
192 35 2
193 35 1
194 35 5
195 35 2
196 35 3
197 35 3
198 35 2
199 35 3
200 35 2
201 35 6
202 35 4
203 35 1
204 35 4
205 35 3
206 35 4
207 35 3
208 35 4
209 35 1
210 35 1
211 35 4
212 35 1
213 35 1
214 35 1
215 35 5
216 35 3
217 35 3
219 35 2
220 35 4
221 35 2
222 35 6
223 35 4
224 35 2
225 35 5
226 35 1
227 35 3
228 35 3
229 35 5
230 35 2
231 35 2
232 35 3
233 35 2
234 35 2
235 35 2
236 35 3
237 35 3
238 35 2
239 35 3
242 35 2
243 35 2
244 35 2
245 35 4
246 35 1
247 35 4
248 35 3
249 35 6
250 35 3
1 36 6
2 36 8
3 36 18
4 36 10
5 36 12
6 36 4
7 36 6
8 36 1
10 36 1
12 36 4
13 36 1
14 36 1
15 36 2
16 36 2
17 36 2
18 36 2
19 36 3
20 36 3
21 36 2
22 36 2
23 36 1
25 36 1
26 36 3
27 36 3
28 36 1
30 36 1
31 36 3
32 36 2
33 36 2
35 36 4
36 36 2
37 36 2
38 36 1
40 36 3
41 36 4
42 36 7
43 36 3
45 36 2
46 36 3
47 36 1
48 36 3
49 36 3
52 36 3
53 36 2
55 36 2
56 36 2
57 36 2
58 36 2
59 36 2
60 36 2
61 36 5
63 36 3
64 36 6
66 36 4
67 36 1
68 36 3
69 36 3
70 36 2
71 36 2
72 36 2
74 36 4
75 36 4
76 36 4
77 36 5
78 36 3
79 36 4
80 36 1
82 36 5
83 36 3
84 36 2
85 36 2
86 36 4
87 36 2
88 36 7
89 36 3
90 36 2
91 36 1
92 36 4
93 36 1
94 36 4
95 36 2
96 36 3
97 36 3
98 36 2
99 36 3
100 36 3
102 36 8
103 36 3
104 36 5
105 36 3
106 36 5
107 36 2
108 36 3
111 36 3
112 36 3
113 36 4
114 36 2
115 36 1
116 36 4
117 36 2
118 36 1
119 36 3
121 36 3
122 36 1
123 36 2
124 36 2
125 36 1
126 36 4
127 36 4
128 36 3
129 36 1
130 36 1
131 36 4
132 36 3
133 36 2
134 36 1
136 36 2
138 36 3
139 36 3
140 36 3
141 36 3
143 36 2
144 36 2
145 36 1
146 36 1
147 36 1
148 36 3
149 36 2
150 36 1
151 36 2
152 36 2
153 36 2
154 36 4
155 36 2
156 36 5
157 36 3
158 36 4
159 36 1
160 36 6
161 36 4
162 36 3
163 36 2
164 36 1
165 36 3
166 36 1
167 36 2
169 36 3
170 36 1
171 36 3
172 36 3
173 36 1
174 36 2
175 36 1
176 36 2
177 36 6
178 36 3
179 36 3
180 36 3
181 36 1
182 36 4
183 36 1
184 36 2
185 36 1
186 36 3
187 36 4
188 36 3
189 36 1
190 36 2
191 36 6
192 36 1
193 36 2
194 36 3
196 36 2
197 36 3
198 36 2
199 36 2
200 36 4
201 36 3
202 36 6
203 36 2
205 36 2
206 36 3
207 36 3
209 36 4
210 36 1
212 36 1
213 36 3
214 36 4
215 36 4
217 36 5
220 36 4
221 36 3
222 36 4
223 36 5
225 36 1
226 36 5
227 36 2
228 36 2
229 36 2
232 36 3
233 36 4
235 36 4
236 36 1
237 36 2
238 36 1
239 36 2
240 36 2
241 36 2
242 36 2
243 36 2
244 36 2
246 36 1
247 36 3
248 36 1
249 36 6
250 36 2
1 37 10
2 37 8
3 37 8
4 37 12
5 37 13
6 37 3
7 37 1
8 37 2
9 37 4
11 37 2
12 37 2
13 37 2
14 37 4
15 37 4
16 37 2
17 37 2
18 37 1
20 37 1
21 37 2
22 37 5
23 37 3
24 37 1
25 37 2
26 37 2
27 37 4
28 37 2
29 37 6
30 37 4
31 37 4
32 37 2
33 37 2
36 37 4
37 37 2
38 37 4
39 37 3
40 37 2
41 37 3
42 37 2
43 37 1
44 37 1
45 37 2
46 37 5
47 37 4
48 37 1
49 37 4
50 37 3
51 37 4
52 37 2
53 37 5
54 37 5
55 37 2
57 37 2
59 37 2
60 37 3
61 37 1
62 37 1
63 37 5
64 37 4
65 37 3
66 37 1
67 37 4
68 37 2
69 37 2
70 37 5
71 37 6
72 37 2
73 37 3
74 37 1
75 37 2
76 37 2
77 37 1
78 37 4
79 37 2
80 37 1
81 37 7
82 37 1
83 37 1
84 37 3
85 37 3
86 37 2
87 37 4
89 37 2
90 37 1
91 37 2
92 37 4
93 37 1
94 37 5
95 37 3
96 37 1
97 37 1
98 37 1
99 37 2
100 37 4
102 37 2
103 37 2
104 37 4
105 37 2
106 37 3
107 37 3
108 37 3
109 37 1
110 37 4
112 37 3
113 37 3
114 37 1
115 37 2
116 37 4
117 37 1
119 37 3
120 37 1
121 37 3
122 37 4
123 37 2
124 37 1
125 37 1
126 37 3
127 37 7
128 37 4
130 37 1
131 37 2
132 37 2
133 37 1
134 37 4
135 37 3
136 37 2
137 37 4
138 37 5
139 37 3
140 37 3
141 37 3
142 37 1
143 37 2
144 37 6
145 37 4
146 37 5
147 37 3
148 37 1
150 37 2
151 37 3
152 37 7
153 37 4
154 37 3
155 37 5
157 37 2
158 37 6
159 37 4
160 37 2
162 37 4
163 37 4
164 37 3
165 37 3
166 37 4
167 37 7
168 37 1
169 37 3
170 37 2
171 37 2
172 37 2
173 37 4
174 37 3
175 37 1
176 37 2
177 37 1
178 37 4
179 37 3
180 37 1
181 37 1
182 37 2
183 37 3
184 37 3
185 37 2
186 37 1
187 37 3
188 37 2
190 37 2
191 37 1
192 37 1
193 37 4
194 37 1
195 37 4
196 37 3
197 37 5
198 37 6
199 37 1
200 37 2
201 37 2
202 37 1
203 37 3
205 37 3
206 37 3
207 37 1
208 37 3
209 37 3
210 37 5
211 37 2
212 37 2
213 37 1
215 37 4
216 37 3
217 37 1
218 37 3
219 37 2
220 37 2
221 37 1
222 37 2
223 37 3
224 37 2
225 37 1
226 37 1
227 37 3
229 37 1
230 37 1
231 37 1
233 37 5
234 37 2
235 37 5
236 37 2
238 37 5
239 37 4
240 37 1
241 37 5
243 37 4
244 37 2
245 37 2
246 37 3
247 37 3
248 37 2
249 37 3
250 37 2
1 38 8
2 38 7
3 38 14
4 38 13
5 38 9
6 38 1
7 38 4
9 38 2
11 38 2
12 38 3
13 38 1
14 38 3
15 38 3
16 38 2
17 38 6
18 38 2
19 38 2
20 38 4
21 38 5
22 38 3
23 38 1
24 38 1
26 38 2
27 38 3
28 38 3
29 38 5
30 38 6
32 38 2
33 38 1
34 38 1
35 38 2
37 38 1
38 38 6
39 38 1
40 38 4
41 38 3
42 38 2
43 38 1
44 38 3
45 38 2
46 38 1
47 38 4
48 38 2
49 38 2
50 38 5
51 38 3
52 38 1
53 38 3
54 38 1
55 38 1
56 38 6
57 38 2
58 38 2
59 38 1
60 38 3
61 38 2
62 38 3
63 38 1
64 38 3
66 38 4
67 38 3
68 38 1
69 38 2
70 38 5
71 38 1
72 38 4
73 38 4
74 38 1
75 38 3
76 38 3
77 38 1
79 38 2
80 38 1
81 38 1
82 38 5
85 38 2
86 38 1
87 38 4
88 38 4
89 38 4
90 38 4
91 38 4
93 38 2
94 38 3
95 38 2
96 38 1
97 38 5
98 38 5
99 38 4
100 38 2
101 38 2
102 38 3
103 38 2
104 38 1
105 38 5
106 38 4
107 38 1
108 38 3
109 38 4
110 38 1
111 38 3
112 38 3
113 38 5
115 38 3
116 38 2
117 38 4
118 38 1
119 38 2
120 38 1
121 38 4
122 38 2
123 38 2
124 38 2
125 38 3
126 38 1
127 38 3
128 38 2
129 38 1
130 38 4
131 38 2
132 38 3
133 38 4
134 38 3
135 38 1
136 38 1
137 38 3
138 38 1
140 38 2
141 38 3
142 38 2
143 38 3
144 38 3
145 38 3
146 38 4
147 38 1
148 38 2
149 38 1
150 38 1
151 38 1
152 38 4
153 38 2
154 38 4
155 38 3
156 38 2
157 38 3
158 38 2
159 38 1
160 38 6
161 38 3
162 38 3
163 38 2
164 38 3
165 38 3
166 38 2
167 38 3
168 38 3
170 38 3
171 38 2
172 38 2
173 38 2
174 38 3
175 38 1
176 38 1
177 38 1
179 38 1
180 38 1
181 38 2
182 38 4
183 38 2
184 38 5
185 38 2
186 38 3
187 38 2
188 38 2
190 38 5
191 38 1
192 38 1
193 38 2
194 38 1
196 38 2
197 38 2
198 38 3
199 38 2
201 38 4
203 38 4
204 38 3
205 38 4
206 38 2
208 38 2
209 38 3
210 38 1
211 38 2
212 38 1
213 38 3
214 38 2
215 38 4
216 38 5
217 38 3
218 38 4
219 38 4
220 38 3
221 38 3
222 38 5
223 38 4
224 38 1
225 38 4
226 38 5
227 38 4
228 38 3
229 38 4
230 38 1
231 38 4
232 38 2
234 38 2
235 38 2
236 38 3
237 38 1
238 38 2
239 38 2
240 38 3
241 38 4
242 38 2
243 38 2
244 38 4
245 38 3
246 38 2
247 38 5
248 38 4
249 38 2
250 38 1
1 39 14
2 39 7
3 39 10
4 39 8
5 39 11
6 39 2
7 39 1
8 39 2
10 39 4
11 39 4
12 39 2
13 39 4
14 39 3
15 39 1
16 39 5
17 39 5
18 39 2
19 39 1
21 39 1
23 39 2
24 39 3
25 39 3
26 39 4
27 39 3
28 39 2
29 39 1
30 39 1
31 39 3
32 39 4
33 39 4
34 39 1
35 39 3
36 39 1
37 39 1
38 39 4
40 39 2
41 39 3
42 39 3
43 39 1
44 39 2
45 39 3
46 39 3
47 39 4
48 39 1
49 39 3
50 39 1
51 39 1
52 39 1
53 39 3
54 39 3
55 39 2
56 39 3
57 39 3
58 39 1
59 39 2
60 39 2
61 39 5
63 39 4
64 39 1
65 39 3
66 39 3
67 39 3
68 39 3
69 39 3
70 39 2
71 39 3
72 39 4
73 39 2
74 39 3
75 39 3
77 39 1
79 39 1
80 39 3
81 39 3
82 39 3
83 39 1
84 39 4
85 39 1
86 39 2
87 39 5
88 39 2
89 39 1
90 39 3
91 39 1
92 39 1
93 39 2
94 39 1
96 39 2
97 39 1
98 39 4
99 39 5
100 39 1
101 39 5
102 39 1
103 39 3
104 39 1
105 39 1
106 39 3
107 39 4
108 39 3
109 39 1
110 39 6
111 39 2
112 39 3
113 39 1
114 39 1
115 39 3
116 39 3
117 39 1
118 39 4
119 39 4
120 39 3
121 39 3
122 39 4
123 39 3
124 39 4
125 39 4
126 39 1
127 39 3
128 39 1
129 39 4
130 39 3
131 39 3
132 39 4
133 39 4
135 39 1
137 39 3
138 39 6
139 39 5
140 39 3
141 39 1
142 39 1
143 39 4
144 39 1
145 39 2
146 39 2
148 39 3
150 39 1
151 39 3
152 39 4
153 39 3
154 39 1
155 39 1
156 39 3
157 39 6
159 39 3
160 39 4
161 39 2
163 39 4
164 39 2
165 39 1
166 39 3
167 39 3
168 39 3
169 39 2
170 39 1
171 39 1
172 39 3
173 39 2
174 39 2
176 39 3
177 39 2
178 39 1
179 39 3
181 39 2
182 39 4
184 39 4
185 39 1
186 39 3
187 39 1
188 39 3
189 39 3
190 39 2
191 39 2
192 39 2
193 39 4
194 39 4
195 39 1
196 39 1
197 39 2
198 39 2
199 39 1
200 39 2
201 39 2
202 39 2
203 39 2
204 39 5
205 39 6
206 39 1
207 39 4
208 39 4
209 39 6
210 39 3
211 39 3
212 39 1
213 39 1
214 39 2
215 39 2
216 39 3
217 39 2
218 39 1
219 39 1
221 39 3
222 39 4
223 39 2
226 39 3
227 39 1
228 39 2
229 39 2
230 39 1
231 39 1
232 39 3
233 39 1
234 39 1
235 39 1
237 39 2
238 39 2
240 39 4
241 39 3
242 39 6
244 39 2
245 39 4
246 39 2
247 39 1
248 39 1
249 39 3
250 39 2
1 40 9
2 40 14
3 40 7
4 40 9
5 40 11
6 40 3
7 40 2
8 40 3
10 40 5
11 40 4
12 40 3
13 40 3
14 40 1
15 40 2
16 40 4
17 40 3
18 40 3
19 40 4
20 40 4
21 40 2
22 40 1
23 40 3
24 40 2
25 40 1
26 40 4
27 40 3
28 40 1
29 40 2
30 40 4
31 40 6
32 40 5
34 40 1
35 40 2
36 40 4
37 40 1
38 40 2
39 40 1
40 40 4
41 40 3
42 40 5
43 40 3
44 40 5
45 40 3
46 40 2
47 40 4
48 40 2
49 40 5
50 40 4
51 40 3
52 40 1
53 40 3
54 40 2
55 40 1
56 40 1
58 40 4
59 40 5
60 40 2
61 40 4
62 40 4
63 40 1
64 40 3
66 40 1
67 40 4
68 40 4
69 40 3
70 40 2
71 40 2
73 40 2
74 40 1
75 40 2
76 40 4
77 40 3
78 40 1
79 40 2
80 40 3
81 40 1
82 40 3
83 40 1
84 40 2
85 40 1
86 40 1
87 40 1
88 40 1
89 40 2
90 40 2
91 40 2
92 40 2
93 40 7
94 40 1
95 40 3
96 40 2
97 40 1
100 40 3
101 40 3
102 40 3
103 40 1
104 40 1
105 40 1
106 40 1
107 40 3
108 40 2
110 40 1
111 40 3
113 40 1
114 40 7
115 40 1
117 40 3
118 40 6
119 40 2
120 40 5
121 40 5
122 40 2
124 40 2
125 40 2
126 40 2
127 40 4
128 40 1
129 40 2
130 40 1
131 40 3
132 40 2
133 40 3
134 40 1
135 40 4
136 40 3
137 40 4
138 40 7
139 40 2
140 40 4
141 40 5
142 40 1
143 40 4
144 40 2
145 40 2
146 40 4
148 40 5
149 40 1
150 40 5
151 40 3
152 40 4
153 40 3
154 40 2
155 40 3
156 40 4
157 40 3
158 40 2
159 40 1
160 40 2
161 40 3
162 40 2
163 40 4
164 40 3
165 40 3
166 40 5
167 40 2
168 40 4
169 40 5
170 40 2
171 40 3
172 40 3
173 40 1
174 40 3
175 40 2
176 40 1
177 40 1
178 40 1
179 40 2
180 40 2
181 40 2
182 40 3
183 40 4
184 40 3
185 40 2
186 40 2
187 40 5
188 40 1
189 40 2
190 40 1
191 40 1
193 40 4
194 40 2
195 40 4
196 40 3
197 40 2
199 40 3
200 40 4
201 40 2
203 40 5
204 40 1
205 40 2
206 40 1
207 40 4
208 40 2
209 40 1
210 40 4
211 40 5
212 40 3
213 40 2
214 40 2
215 40 2
217 40 1
219 40 3
220 40 3
222 40 1
223 40 1
224 40 4
225 40 2
226 40 4
227 40 5
228 40 3
229 40 4
230 40 5
231 40 2
232 40 2
233 40 1
235 40 1
236 40 2
237 40 3
238 40 1
239 40 2
240 40 3
241 40 1
242 40 3
243 40 4
244 40 1
245 40 2
246 40 5
247 40 2
248 40 5
249 40 2
250 40 5
1 41 2
2 41 2
3 41 4
4 41 1
5 41 3
6 41 9
7 41 8
8 41 10
9 41 12
10 41 9
11 41 3
12 41 1
13 41 3
14 41 1
15 41 2
16 41 5
17 41 3
18 41 2
19 41 4
20 41 4
22 41 5
23 41 3
24 41 2
25 41 2
26 41 2
27 41 2
28 41 4
29 41 1
30 41 2
32 41 2
33 41 2
34 41 2
35 41 4
36 41 5
37 41 5
38 41 3
39 41 3
40 41 2
41 41 2
42 41 6
43 41 2
44 41 6
45 41 3
47 41 4
48 41 4
49 41 3
50 41 2
51 41 2
52 41 2
53 41 1
54 41 5
55 41 5
56 41 1
57 41 3
58 41 2
59 41 2
60 41 5
61 41 2
62 41 3
63 41 4
64 41 2
65 41 1
66 41 5
67 41 3
68 41 2
69 41 4
70 41 1
71 41 3
72 41 2
73 41 1
74 41 1
75 41 3
76 41 1
77 41 1
78 41 4
79 41 3
81 41 3
82 41 1
83 41 3
84 41 1
85 41 4
86 41 3
87 41 1
88 41 2
90 41 7
91 41 2
92 41 4
93 41 2
94 41 2
95 41 2
96 41 4
97 41 3
98 41 2
100 41 1
101 41 5
102 41 2
104 41 4
105 41 5
106 41 1
107 41 2
108 41 4
109 41 2
110 41 3
111 41 2
113 41 4
114 41 3
115 41 4
116 41 2
117 41 3
118 41 5
119 41 5
120 41 2
121 41 2
122 41 3
123 41 5
124 41 2
125 41 1
126 41 3
127 41 3
128 41 2
129 41 5
130 41 2
131 41 1
132 41 1
133 41 3
135 41 1
136 41 4
137 41 4
138 41 4
140 41 1
141 41 3
142 41 4
143 41 4
144 41 6
145 41 2
146 41 3
148 41 3
150 41 2
151 41 1
152 41 3
153 41 4
155 41 1
156 41 5
158 41 2
159 41 4
160 41 3
161 41 2
162 41 7
163 41 4
164 41 3
165 41 6
166 41 1
167 41 2
168 41 6
169 41 1
170 41 3
171 41 6
172 41 2
173 41 1
174 41 3
175 41 2
176 41 2
177 41 1
178 41 1
179 41 2
180 41 1
181 41 4
182 41 1
183 41 4
184 41 2
185 41 3
186 41 4
188 41 2
190 41 3
191 41 1
192 41 4
193 41 3
194 41 2
195 41 3
196 41 2
197 41 2
198 41 2
199 41 2
200 41 4
201 41 3
203 41 3
204 41 4
206 41 2
207 41 3
208 41 2
209 41 4
210 41 3
211 41 4
212 41 5
213 41 2
214 41 2
215 41 5
216 41 1
217 41 1
218 41 3
219 41 2
220 41 1
221 41 1
222 41 3
223 41 1
224 41 3
225 41 3
226 41 2
227 41 2
228 41 1
229 41 4
230 41 3
231 41 2
232 41 1
233 41 3
235 41 2
236 41 2
237 41 2
238 41 1
239 41 1
240 41 3
241 41 3
242 41 2
243 41 2
245 41 4
246 41 2
247 41 3
248 41 5
249 41 2
250 41 1
1 42 5
2 42 3
3 42 2
4 42 2
5 42 4
6 42 9
7 42 13
8 42 9
9 42 5
10 42 9
11 42 2
12 42 2
13 42 1
14 42 2
15 42 5
16 42 7
17 42 2
18 42 2
19 42 1
20 42 5
22 42 3
23 42 3
24 42 5
25 42 1
26 42 4
28 42 3
29 42 4
30 42 1
31 42 1
32 42 2
33 42 2
34 42 2
35 42 4
36 42 1
37 42 1
38 42 5
39 42 3
40 42 6
41 42 4
42 42 1
43 42 2
44 42 5
45 42 2
46 42 2
47 42 2
48 42 2
49 42 2
50 42 6
51 42 1
53 42 1
54 42 7
55 42 2
56 42 3
57 42 3
59 42 2
60 42 1
61 42 3
62 42 5
63 42 6
64 42 1
65 42 4
66 42 2
68 42 1
69 42 1
70 42 1
71 42 4
72 42 1
73 42 4
74 42 5
75 42 5
76 42 3
77 42 7
78 42 3
79 42 1
80 42 2
81 42 4
82 42 1
83 42 1
84 42 5
86 42 5
87 42 2
88 42 2
89 42 4
90 42 4
91 42 2
92 42 2
93 42 4
94 42 1
95 42 1
96 42 3
97 42 2
98 42 1
99 42 5
100 42 5
101 42 2
102 42 3
103 42 3
104 42 6
105 42 2
106 42 2
107 42 3
109 42 3
110 42 3
112 42 2
113 42 1
114 42 1
115 42 3
116 42 2
117 42 3
118 42 1
119 42 3
120 42 2
122 42 2
123 42 3
125 42 2
126 42 6
127 42 2
128 42 2
129 42 5
130 42 3
131 42 2
132 42 4
133 42 2
134 42 1
135 42 6
136 42 1
137 42 3
138 42 3
139 42 1
140 42 4
142 42 2
143 42 1
144 42 1
146 42 2
147 42 2
148 42 2
149 42 5
150 42 4
151 42 3
152 42 4
153 42 4
154 42 3
155 42 2
156 42 1
157 42 6
158 42 3
159 42 2
160 42 2
161 42 5
162 42 2
163 42 2
164 42 4
165 42 3
166 42 1
167 42 3
168 42 1
169 42 7
170 42 1
171 42 4
172 42 3
173 42 3
174 42 3
175 42 1
176 42 2
177 42 1
178 42 3
179 42 2
180 42 4
181 42 3
182 42 3
183 42 3
184 42 5
185 42 5
186 42 2
187 42 8
188 42 2
189 42 5
190 42 6
191 42 2
192 42 7
193 42 3
194 42 7
195 42 2
196 42 3
198 42 1
199 42 1
200 42 4
201 42 5
202 42 4
203 42 3
204 42 1
205 42 1
206 42 4
208 42 4
209 42 4
210 42 2
211 42 3
212 42 2
214 42 5
215 42 4
216 42 3
217 42 4
218 42 1
219 42 2
220 42 2
221 42 2
222 42 2
223 42 2
224 42 4
225 42 3
226 42 1
228 42 2
229 42 1
230 42 3
231 42 5
232 42 3
233 42 5
234 42 5
235 42 1
236 42 6
237 42 4
239 42 1
240 42 3
241 42 1
242 42 1
243 42 3
244 42 5
245 42 1
246 42 3
247 42 4
248 42 4
250 42 3
1 43 2
2 43 6
3 43 2
4 43 3
5 43 5
6 43 14
7 43 13
8 43 12
9 43 9
10 43 13
11 43 1
12 43 4
13 43 1
14 43 2
15 43 1
17 43 3
18 43 4
19 43 5
20 43 7
21 43 1
22 43 6
23 43 1
25 43 5
26 43 2
27 43 3
28 43 6
29 43 2
31 43 2
32 43 1
33 43 4
34 43 2
35 43 3
36 43 2
37 43 3
38 43 4
39 43 6
40 43 4
41 43 3
43 43 4
44 43 2
45 43 5
46 43 5
47 43 1
48 43 1
49 43 2
50 43 2
51 43 3
52 43 2
53 43 3
54 43 1
56 43 7
57 43 3
58 43 1
59 43 3
60 43 2
61 43 2
62 43 2
63 43 1
64 43 1
65 43 6
66 43 4
67 43 1
68 43 3
69 43 1
71 43 2
72 43 3
73 43 1
74 43 3
75 43 3
76 43 3
77 43 4
78 43 2
79 43 4
80 43 5
82 43 5
83 43 3
84 43 4
85 43 4
86 43 2
88 43 3
89 43 1
90 43 3
91 43 2
92 43 4
93 43 2
94 43 2
95 43 4
97 43 2
98 43 2
99 43 3
100 43 3
101 43 2
102 43 2
103 43 7
104 43 1
105 43 4
106 43 3
107 43 1
108 43 1
109 43 2
110 43 2
111 43 6
112 43 2
113 43 2
115 43 4
116 43 4
118 43 2
119 43 3
120 43 1
121 43 3
122 43 2
123 43 1
124 43 7
125 43 1
126 43 4
127 43 4
128 43 1
129 43 2
130 43 1
131 43 3
132 43 4
133 43 1
134 43 5
135 43 1
136 43 1
137 43 1
138 43 2
139 43 2
140 43 2
141 43 1
142 43 1
143 43 2
144 43 2
145 43 1
146 43 4
147 43 2
148 43 2
149 43 4
150 43 2
151 43 4
153 43 2
154 43 1
155 43 5
156 43 4
157 43 5
158 43 3
160 43 1
161 43 4
162 43 2
163 43 3
164 43 1
165 43 2
166 43 1
167 43 2
168 43 4
170 43 1
171 43 1
172 43 4
173 43 3
174 43 1
175 43 2
176 43 3
177 43 4
178 43 1
180 43 1
181 43 1
182 43 3
183 43 3
184 43 6
185 43 3
186 43 6
187 43 4
188 43 3
189 43 3
190 43 4
191 43 4
192 43 4
193 43 4
194 43 2
195 43 2
196 43 2
198 43 2
199 43 1
200 43 3
201 43 1
202 43 5
203 43 4
204 43 2
205 43 3
206 43 1
207 43 1
208 43 6
209 43 3
210 43 4
211 43 3
212 43 4
213 43 2
214 43 3
215 43 6
216 43 6
217 43 6
219 43 2
220 43 1
221 43 2
222 43 2
223 43 4
225 43 5
226 43 1
227 43 7
228 43 7
229 43 2
230 43 3
231 43 2
232 43 2
233 43 3
234 43 1
235 43 3
236 43 1
237 43 2
238 43 4
239 43 1
240 43 2
241 43 2
242 43 3
243 43 2
244 43 3
245 43 4
246 43 3
247 43 2
248 43 1
250 43 3
1 44 2
2 44 1
3 44 2
4 44 1
5 44 3
6 44 13
7 44 3
8 44 9
9 44 15
10 44 10
11 44 4
12 44 3
13 44 1
15 44 4
16 44 2
17 44 3
18 44 4
19 44 4
20 44 2
21 44 1
22 44 1
23 44 4
24 44 3
25 44 2
26 44 2
27 44 1
28 44 1
29 44 5
30 44 2
31 44 6
32 44 5
33 44 4
34 44 2
35 44 4
36 44 3
37 44 5
38 44 1
39 44 6
40 44 4
41 44 1
42 44 3
43 44 4
44 44 3
45 44 6
46 44 1
47 44 6
48 44 3
49 44 3
50 44 2
51 44 1
53 44 3
54 44 2
55 44 1
56 44 3
57 44 4
58 44 3
59 44 1
60 44 1
61 44 3
62 44 1
63 44 3
64 44 2
65 44 4
66 44 2
67 44 6
68 44 1
69 44 6
70 44 2
71 44 3
72 44 1
73 44 4
74 44 5
75 44 1
76 44 1
77 44 2
78 44 2
79 44 2
80 44 1
81 44 2
82 44 4
83 44 4
84 44 2
85 44 4
86 44 1
87 44 3
89 44 2
90 44 4
91 44 1
92 44 1
94 44 4
95 44 3
96 44 5
97 44 3
98 44 4
99 44 1
100 44 5
101 44 3
102 44 3
104 44 4
105 44 6
106 44 4
107 44 1
108 44 3
109 44 5
110 44 3
111 44 4
112 44 3
113 44 2
114 44 2
115 44 2
116 44 4
117 44 4
118 44 2
119 44 2
120 44 2
121 44 2
122 44 3
123 44 1
124 44 4
125 44 4
126 44 3
127 44 1
128 44 4
129 44 1
130 44 2
132 44 2
133 44 1
135 44 3
136 44 1
137 44 1
138 44 6
139 44 1
140 44 1
141 44 3
142 44 1
143 44 2
144 44 2
145 44 3
146 44 2
147 44 2
149 44 1
150 44 6
151 44 2
152 44 2
153 44 1
154 44 3
155 44 2
156 44 3
157 44 3
158 44 5
160 44 1
161 44 3
162 44 2
163 44 4
164 44 2
165 44 4
166 44 1
167 44 4
168 44 2
169 44 2
170 44 1
171 44 4
172 44 3
173 44 1
174 44 2
175 44 3
176 44 3
177 44 1
178 44 6
179 44 1
180 44 3
181 44 2
182 44 3
183 44 5
184 44 1
185 44 1
186 44 5
187 44 5
188 44 3
189 44 6
190 44 2
191 44 5
192 44 7
193 44 6
194 44 3
195 44 5
196 44 2
197 44 3
198 44 3
199 44 3
200 44 2
201 44 1
202 44 3
203 44 1
204 44 2
205 44 2
206 44 1
207 44 3
208 44 3
209 44 1
211 44 1
212 44 5
213 44 6
214 44 2
215 44 5
217 44 6
218 44 3
219 44 5
220 44 2
221 44 4
222 44 1
223 44 1
224 44 2
225 44 2
226 44 1
227 44 2
228 44 2
231 44 3
232 44 3
233 44 1
234 44 3
236 44 1
237 44 4
238 44 1
239 44 1
240 44 2
241 44 1
242 44 3
243 44 4
244 44 3
245 44 1
246 44 3
247 44 3
249 44 6
1 45 3
2 45 1
3 45 2
4 45 1
5 45 1
6 45 15
7 45 9
8 45 12
9 45 7
10 45 7
11 45 3
12 45 1
13 45 3
14 45 1
15 45 6
16 45 1
17 45 4
18 45 1
19 45 3
20 45 1
21 45 3
22 45 5
23 45 2
24 45 6
25 45 2
26 45 5
27 45 2
28 45 5
29 45 2
30 45 3
32 45 5
33 45 2
35 45 3
37 45 6
39 45 3
40 45 2
41 45 1
43 45 1
44 45 3
45 45 2
46 45 2
47 45 6
48 45 1
49 45 2
50 45 2
51 45 4
52 45 4
53 45 4
54 45 2
55 45 1
56 45 1
57 45 2
58 45 2
59 45 1
60 45 4
61 45 2
62 45 5
63 45 4
64 45 3
65 45 3
66 45 2
68 45 3
69 45 1
70 45 6
71 45 2
72 45 2
73 45 5
74 45 3
75 45 7
76 45 2
77 45 3
78 45 2
79 45 2
80 45 2
81 45 4
82 45 1
83 45 2
84 45 1
85 45 3
86 45 5
87 45 2
88 45 2
89 45 3
90 45 3
91 45 1
92 45 5
93 45 2
94 45 2
95 45 3
96 45 1
97 45 1
98 45 4
100 45 5
101 45 4
102 45 5
103 45 1
104 45 5
105 45 4
106 45 4
107 45 3
110 45 2
111 45 7
112 45 3
113 45 3
114 45 1
116 45 2
118 45 2
119 45 3
120 45 2
121 45 3
122 45 4
123 45 2
124 45 3
125 45 2
126 45 3
127 45 1
128 45 3
129 45 2
130 45 2
131 45 1
132 45 4
133 45 1
134 45 2
135 45 5
136 45 3
137 45 3
138 45 1
139 45 3
140 45 4
141 45 3
142 45 3
143 45 4
144 45 2
145 45 5
146 45 4
147 45 1
148 45 3
149 45 10
150 45 2
151 45 4
152 45 6
153 45 3
155 45 2
156 45 6
157 45 3
158 45 1
159 45 4
160 45 3
161 45 4
162 45 3
163 45 1
164 45 2
165 45 1
166 45 2
168 45 6
169 45 4
170 45 1
171 45 1
172 45 3
173 45 1
174 45 2
175 45 4
176 45 6
177 45 4
178 45 1
179 45 4
180 45 1
183 45 6
184 45 1
185 45 1
186 45 3
187 45 2
188 45 4
189 45 1
190 45 1
191 45 5
192 45 1
193 45 2
194 45 3
195 45 3
196 45 3
197 45 3
198 45 2
199 45 4
201 45 3
202 45 6
203 45 2
204 45 2
205 45 5
206 45 1
207 45 3
208 45 1
209 45 3
211 45 2
212 45 1
213 45 2
214 45 4
215 45 4
216 45 3
218 45 3
219 45 5
220 45 3
222 45 1
223 45 3
224 45 2
225 45 3
226 45 2
227 45 2
228 45 4
229 45 3
230 45 4
231 45 3
232 45 3
234 45 3
235 45 2
236 45 4
237 45 3
238 45 4
239 45 2
240 45 3
241 45 2
242 45 4
243 45 2
245 45 3
246 45 3
247 45 4
248 45 1
249 45 3
250 45 2
1 46 4
2 46 2
3 46 3
4 46 3
5 46 1
6 46 12
7 46 10
8 46 13
9 46 12
10 46 10
11 46 3
12 46 3
13 46 8
14 46 6
15 46 4
16 46 2
17 46 2
18 46 1
20 46 1
21 46 2
22 46 1
23 46 4
24 46 3
25 46 2
26 46 1
27 46 1
28 46 2
29 46 3
30 46 2
31 46 2
32 46 4
33 46 3
34 46 1
35 46 2
36 46 2
37 46 1
38 46 3
39 46 3
40 46 2
41 46 2
42 46 2
43 46 3
44 46 3
45 46 2
46 46 2
47 46 5
48 46 4
49 46 5
50 46 2
51 46 1
52 46 1
53 46 1
54 46 2
55 46 2
57 46 2
58 46 1
59 46 2
60 46 2
61 46 2
62 46 3
64 46 3
65 46 4
67 46 5
68 46 1
69 46 3
70 46 1
71 46 5
72 46 2
73 46 6
74 46 7
75 46 2
76 46 3
77 46 3
78 46 2
79 46 1
80 46 4
83 46 1
84 46 2
85 46 3
86 46 5
87 46 1
88 46 4
89 46 4
90 46 1
91 46 2
92 46 3
93 46 5
94 46 1
95 46 6
96 46 1
97 46 2
98 46 4
99 46 7
100 46 2
101 46 3
102 46 4
103 46 4
104 46 2
105 46 1
106 46 2
107 46 5
108 46 3
109 46 2
110 46 4
111 46 2
114 46 1
115 46 2
116 46 3
117 46 6
118 46 1
119 46 6
120 46 1
121 46 2
122 46 1
123 46 3
124 46 4
125 46 3
126 46 5
127 46 2
128 46 4
129 46 5
130 46 2
131 46 4
132 46 1
133 46 3
134 46 2
135 46 5
136 46 2
137 46 1
138 46 2
139 46 1
140 46 4
141 46 3
142 46 2
143 46 1
144 46 2
145 46 3
146 46 2
147 46 1
148 46 1
149 46 4
150 46 5
151 46 3
152 46 2
153 46 2
154 46 3
155 46 1
156 46 2
158 46 1
159 46 3
160 46 1
161 46 3
162 46 1
163 46 3
164 46 1
165 46 4
166 46 1
167 46 1
168 46 1
169 46 3
170 46 2
171 46 1
172 46 4
176 46 3
178 46 6
179 46 3
180 46 2
182 46 3
183 46 4
184 46 2
185 46 3
186 46 3
187 46 2
188 46 2
189 46 2
190 46 4
191 46 1
192 46 2
193 46 2
194 46 2
195 46 2
196 46 4
197 46 2
198 46 2
200 46 3
201 46 1
202 46 5
203 46 3
204 46 5
205 46 2
206 46 3
207 46 2
208 46 3
209 46 2
210 46 3
211 46 2
212 46 3
213 46 4
214 46 1
215 46 3
216 46 2
217 46 1
218 46 1
219 46 5
220 46 5
221 46 3
222 46 1
223 46 1
224 46 2
225 46 2
226 46 3
227 46 4
228 46 3
229 46 3
230 46 3
231 46 2
232 46 1
233 46 4
234 46 3
235 46 1
236 46 2
237 46 1
238 46 2
239 46 1
240 46 3
241 46 3
242 46 4
244 46 1
245 46 3
246 46 1
247 46 3
249 46 1
250 46 3
1 47 2
2 47 2
3 47 2
4 47 6
5 47 5
6 47 14
7 47 11
8 47 7
9 47 13
10 47 14
11 47 3
12 47 2
13 47 4
14 47 3
15 47 4
16 47 3
17 47 3
18 47 1
19 47 5
20 47 3
21 47 2
22 47 2
23 47 3
25 47 1
27 47 6
28 47 4
29 47 2
30 47 2
31 47 4
32 47 3
33 47 1
34 47 3
35 47 2
36 47 4
37 47 3
38 47 1
39 47 5
40 47 4
41 47 6
42 47 4
43 47 3
44 47 1
45 47 1
46 47 1
47 47 4
48 47 1
49 47 1
50 47 2
51 47 3
52 47 3
53 47 1
54 47 3
55 47 2
56 47 6
57 47 6
58 47 2
59 47 4
60 47 2
61 47 4
62 47 6
63 47 3
64 47 1
66 47 2
67 47 2
68 47 4
69 47 3
70 47 3
71 47 2
72 47 5
73 47 4
74 47 3
75 47 1
76 47 1
78 47 2
79 47 1
80 47 3
81 47 3
82 47 2
83 47 2
84 47 4
85 47 4
86 47 2
87 47 2
88 47 3
89 47 5
90 47 3
91 47 1
92 47 3
93 47 1
94 47 4
95 47 2
96 47 1
97 47 2
98 47 4
99 47 1
100 47 3
101 47 2
102 47 4
103 47 1
104 47 1
105 47 1
106 47 4
107 47 1
108 47 4
109 47 4
110 47 1
111 47 2
113 47 2
114 47 2
115 47 4
116 47 2
119 47 2
120 47 1
121 47 2
122 47 1
123 47 4
124 47 3
125 47 3
126 47 1
127 47 3
128 47 5
129 47 3
130 47 5
131 47 4
132 47 1
133 47 2
134 47 1
135 47 3
136 47 8
137 47 1
138 47 1
139 47 1
140 47 5
141 47 3
142 47 3
144 47 4
145 47 1
146 47 2
147 47 3
148 47 2
149 47 3
150 47 3
151 47 3
153 47 4
154 47 6
157 47 3
159 47 5
160 47 2
161 47 1
162 47 4
163 47 3
164 47 2
165 47 3
166 47 1
167 47 1
168 47 3
169 47 2
170 47 3
171 47 3
172 47 1
173 47 5
174 47 3
175 47 3
176 47 1
177 47 2
178 47 3
179 47 2
180 47 10
181 47 4
182 47 2
183 47 4
184 47 3
185 47 4
186 47 2
187 47 2
188 47 1
189 47 4
190 47 5
191 47 3
192 47 3
193 47 4
194 47 4
195 47 4
196 47 1
197 47 4
198 47 1
200 47 4
201 47 5
202 47 3
203 47 5
204 47 1
205 47 1
206 47 4
207 47 4
208 47 2
209 47 2
210 47 2
211 47 6
212 47 3
215 47 3
216 47 3
217 47 3
218 47 2
219 47 1
220 47 1
221 47 7
222 47 4
223 47 2
224 47 2
225 47 2
226 47 1
227 47 3
228 47 5
229 47 3
230 47 3
231 47 4
232 47 2
234 47 3
235 47 3
236 47 4
237 47 5
238 47 1
239 47 2
240 47 3
241 47 4
242 47 4
243 47 1
244 47 3
245 47 3
246 47 2
247 47 1
248 47 4
249 47 1
250 47 4
1 48 3
2 48 2
3 48 2
4 48 1
5 48 2
6 48 11
7 48 10
8 48 13
9 48 6
10 48 8
12 48 1
13 48 3
14 48 6
15 48 1
16 48 1
17 48 1
18 48 6
19 48 2
20 48 4
21 48 3
23 48 2
24 48 5
25 48 2
26 48 2
27 48 3
28 48 2
30 48 1
33 48 2
34 48 3
35 48 3
36 48 3
37 48 2
38 48 1
39 48 4
40 48 1
41 48 7
43 48 8
44 48 6
45 48 2
46 48 3
48 48 3
49 48 3
50 48 1
51 48 4
52 48 2
53 48 2
54 48 4
55 48 3
56 48 2
57 48 5
58 48 2
59 48 3
60 48 2
61 48 1
63 48 2
64 48 3
65 48 2
66 48 3
67 48 3
68 48 1
70 48 7
71 48 2
72 48 2
73 48 2
74 48 4
75 48 6
76 48 3
77 48 4
78 48 2
79 48 4
81 48 2
82 48 4
83 48 6
84 48 3
85 48 2
86 48 1
87 48 1
88 48 1
89 48 3
90 48 2
91 48 5
92 48 3
93 48 4
94 48 2
95 48 4
96 48 2
97 48 2
98 48 2
99 48 2
100 48 2
101 48 6
102 48 3
103 48 6
104 48 5
105 48 2
106 48 3
108 48 4
109 48 1
110 48 1
111 48 2
112 48 4
113 48 5
114 48 4
116 48 5
117 48 4
119 48 3
120 48 1
121 48 4
122 48 4
123 48 2
124 48 3
125 48 3
126 48 3
127 48 4
128 48 3
129 48 2
130 48 4
131 48 3
132 48 3
133 48 2
134 48 3
135 48 2
136 48 4
138 48 1
139 48 3
140 48 1
141 48 1
142 48 2
143 48 1
144 48 4
145 48 2
147 48 2
148 48 1
149 48 4
150 48 2
151 48 1
153 48 2
154 48 1
155 48 7
156 48 3
157 48 5
158 48 4
159 48 6
160 48 4
161 48 4
162 48 2
163 48 3
164 48 2
165 48 3
166 48 1
167 48 2
168 48 4
169 48 3
170 48 2
171 48 4
173 48 2
174 48 4
176 48 1
177 48 1
178 48 2
179 48 3
180 48 3
181 48 3
182 48 4
183 48 3
186 48 5
187 48 3
188 48 3
189 48 4
190 48 6
191 48 1
192 48 1
193 48 3
194 48 3
195 48 1
198 48 3
199 48 3
200 48 3
201 48 4
202 48 4
203 48 4
204 48 1
205 48 2
206 48 1
207 48 3
208 48 1
209 48 2
210 48 1
212 48 4
213 48 2
214 48 1
215 48 2
216 48 3
218 48 4
219 48 5
220 48 2
221 48 2
222 48 4
223 48 3
224 48 4
225 48 3
226 48 1
227 48 4
228 48 1
229 48 1
230 48 2
231 48 7
232 48 4
233 48 1
234 48 3
235 48 3
236 48 3
237 48 5
238 48 3
239 48 2
240 48 2
241 48 2
242 48 4
243 48 3
244 48 1
245 48 2
246 48 1
247 48 2
248 48 2
250 48 4
1 49 3
2 49 2
3 49 3
4 49 8
5 49 1
6 49 9
7 49 9
8 49 13
9 49 9
10 49 8
11 49 1
12 49 1
13 49 3
14 49 1
15 49 3
17 49 2
18 49 2
19 49 4
20 49 2
21 49 2
22 49 3
23 49 3
24 49 5
25 49 2
26 49 3
27 49 4
28 49 3
29 49 6
30 49 1
31 49 4
32 49 2
33 49 3
34 49 1
35 49 3
36 49 2
37 49 5
38 49 2
39 49 3
40 49 2
41 49 2
42 49 3
43 49 2
44 49 2
45 49 1
46 49 4
47 49 4
48 49 2
50 49 4
51 49 5
52 49 4
54 49 5
55 49 3
56 49 3
57 49 3
58 49 1
59 49 3
60 49 2
61 49 2
62 49 1
63 49 3
64 49 3
65 49 1
66 49 2
67 49 2
68 49 1
69 49 2
70 49 2
71 49 5
72 49 1
73 49 3
74 49 3
75 49 4
76 49 1
77 49 4
79 49 4
80 49 1
81 49 6
82 49 4
83 49 3
84 49 2
85 49 4
86 49 4
88 49 2
89 49 1
91 49 2
92 49 5
93 49 4
94 49 3
95 49 1
96 49 2
97 49 5
98 49 2
99 49 3
100 49 1
101 49 2
102 49 1
103 49 3
105 49 2
106 49 1
107 49 2
108 49 6
109 49 1
110 49 3
111 49 1
112 49 2
113 49 2
114 49 2
115 49 2
116 49 3
117 49 3
118 49 2
119 49 1
120 49 2
121 49 2
122 49 2
123 49 4
124 49 2
125 49 1
126 49 1
127 49 3
128 49 6
129 49 2
130 49 4
131 49 1
132 49 5
133 49 2
135 49 3
136 49 1
137 49 6
138 49 1
139 49 5
140 49 1
141 49 7
142 49 1
143 49 1
144 49 1
145 49 3
146 49 1
147 49 1
148 49 1
149 49 7
151 49 2
152 49 4
153 49 3
154 49 4
155 49 4
156 49 4
157 49 2
158 49 3
159 49 3
160 49 2
161 49 2
162 49 3
163 49 3
164 49 2
165 49 4
166 49 2
167 49 1
168 49 3
170 49 3
171 49 3
172 49 2
173 49 7
174 49 6
175 49 3
176 49 4
177 49 1
178 49 3
179 49 2
180 49 4
181 49 7
183 49 2
184 49 1
185 49 6
186 49 2
187 49 3
188 49 4
189 49 5
190 49 4
191 49 1
192 49 1
193 49 4
194 49 1
196 49 2
197 49 4
198 49 2
199 49 3
200 49 3
201 49 1
202 49 3
203 49 2
204 49 3
205 49 3
206 49 2
207 49 1
208 49 2
209 49 2
210 49 4
211 49 2
212 49 3
213 49 3
214 49 2
215 49 1
216 49 4
217 49 3
218 49 2
219 49 4
220 49 4
221 49 1
222 49 1
223 49 5
224 49 6
225 49 1
226 49 2
227 49 3
230 49 2
232 49 3
233 49 2
234 49 7
235 49 3
236 49 3
237 49 2
238 49 1
239 49 2
240 49 1
241 49 2
242 49 1
243 49 2
244 49 5
245 49 1
248 49 2
250 49 4
1 50 7
3 50 4
4 50 4
5 50 4
6 50 16
7 50 14
8 50 9
9 50 6
10 50 10
11 50 1
12 50 2
13 50 2
14 50 3
15 50 3
16 50 3
17 50 2
18 50 1
19 50 2
20 50 5
21 50 1
22 50 2
23 50 1
24 50 2
25 50 2
27 50 3
28 50 3
29 50 5
30 50 6
31 50 2
32 50 4
33 50 2
35 50 1
36 50 2
37 50 3
38 50 3
39 50 4
41 50 3
42 50 1
43 50 2
44 50 3
45 50 3
46 50 1
47 50 1
48 50 1
49 50 4
52 50 3
53 50 3
54 50 2
55 50 2
56 50 2
57 50 3
59 50 4
60 50 1
61 50 2
62 50 4
63 50 3
64 50 2
66 50 1
67 50 3
68 50 2
69 50 2
70 50 2
71 50 2
72 50 1
73 50 5
74 50 7
75 50 2
76 50 2
77 50 3
78 50 2
79 50 1
80 50 2
81 50 1
82 50 1
83 50 5
84 50 5
85 50 3
86 50 2
87 50 3
89 50 3
90 50 1
91 50 4
92 50 2
93 50 3
94 50 3
95 50 5
96 50 2
97 50 3
98 50 3
99 50 3
100 50 1
101 50 1
102 50 1
103 50 3
104 50 2
105 50 3
106 50 3
107 50 2
109 50 4
110 50 1
111 50 2
112 50 1
113 50 1
114 50 3
115 50 3
116 50 3
117 50 4
118 50 7
120 50 2
121 50 2
122 50 3
124 50 2
125 50 2
126 50 2
127 50 4
128 50 2
129 50 3
130 50 4
131 50 2
132 50 3
133 50 4
134 50 2
137 50 1
138 50 5
139 50 2
140 50 3
141 50 3
142 50 2
143 50 2
144 50 4
145 50 2
146 50 3
147 50 2
148 50 1
149 50 3
150 50 2
152 50 1
153 50 2
154 50 3
155 50 1
156 50 7
157 50 3
158 50 2
159 50 1
160 50 3
161 50 2
162 50 1
163 50 4
164 50 6
166 50 4
168 50 2
169 50 1
171 50 2
173 50 1
174 50 1
175 50 4
176 50 5
177 50 2
178 50 1
179 50 1
180 50 4
181 50 1
182 50 1
183 50 2
184 50 1
185 50 3
186 50 7
187 50 4
188 50 3
189 50 4
191 50 5
192 50 2
193 50 1
194 50 1
195 50 1
196 50 4
197 50 1
199 50 3
200 50 3
201 50 3
202 50 2
203 50 4
204 50 5
205 50 1
206 50 2
207 50 2
208 50 3
209 50 2
210 50 1
211 50 1
213 50 4
214 50 1
215 50 3
216 50 4
217 50 6
218 50 3
219 50 2
221 50 2
222 50 2
223 50 4
224 50 2
225 50 1
226 50 4
227 50 3
228 50 2
229 50 1
230 50 2
231 50 5
232 50 1
233 50 2
234 50 4
236 50 2
237 50 2
238 50 3
239 50 1
240 50 2
241 50 4
242 50 3
243 50 4
244 50 6
245 50 4
246 50 2
247 50 2
248 50 2
250 50 1
2 51 1
3 51 2
4 51 3
5 51 2
6 51 14
7 51 10
8 51 7
9 51 13
10 51 12
11 51 4
12 51 3
14 51 2
16 51 1
17 51 4
18 51 3
19 51 3
20 51 3
21 51 1
22 51 7
24 51 3
25 51 1
26 51 3
27 51 2
28 51 4
29 51 2
30 51 5
31 51 5
32 51 3
33 51 5
34 51 1
35 51 1
36 51 1
37 51 3
38 51 3
39 51 5
40 51 2
41 51 4
42 51 3
43 51 4
44 51 4
45 51 3
46 51 2
48 51 1
49 51 7
50 51 3
51 51 2
52 51 2
54 51 6
55 51 4
56 51 2
57 51 2
58 51 1
59 51 3
60 51 1
61 51 2
62 51 2
63 51 3
64 51 4
65 51 6
66 51 4
67 51 1
68 51 3
69 51 1
70 51 2
71 51 1
72 51 3
73 51 1
74 51 1
75 51 3
76 51 2
77 51 1
78 51 1
79 51 3
80 51 2
81 51 2
82 51 3
83 51 2
86 51 2
87 51 6
88 51 1
89 51 6
90 51 2
91 51 3
92 51 3
93 51 1
94 51 3
95 51 6
96 51 3
97 51 1
98 51 7
99 51 4
101 51 4
102 51 1
103 51 1
104 51 3
105 51 3
106 51 3
107 51 3
109 51 4
110 51 4
111 51 2
113 51 2
114 51 2
115 51 2
116 51 2
117 51 6
118 51 2
119 51 3
120 51 3
122 51 3
123 51 1
124 51 5
125 51 2
126 51 2
127 51 5
128 51 4
129 51 1
130 51 3
131 51 3
132 51 2
133 51 3
134 51 4
135 51 1
136 51 5
137 51 1
138 51 2
139 51 2
140 51 6
141 51 1
142 51 2
143 51 3
144 51 1
145 51 1
146 51 1
147 51 4
148 51 2
149 51 2
150 51 2
151 51 3
152 51 2
153 51 3
154 51 3
155 51 2
156 51 3
157 51 3
158 51 2
159 51 4
160 51 4
161 51 4
162 51 4
163 51 1
164 51 1
165 51 1
166 51 2
167 51 5
168 51 4
169 51 4
170 51 3
171 51 2
172 51 3
173 51 2
175 51 3
176 51 3
178 51 1
179 51 5
180 51 3
181 51 2
182 51 2
183 51 2
184 51 1
185 51 3
186 51 1
187 51 2
188 51 3
189 51 4
190 51 3
191 51 1
192 51 1
193 51 1
194 51 3
195 51 4
196 51 1
197 51 4
199 51 5
200 51 1
201 51 2
202 51 4
203 51 6
204 51 1
205 51 1
206 51 3
207 51 3
208 51 5
209 51 1
210 51 2
211 51 9
212 51 2
213 51 2
214 51 2
215 51 3
216 51 2
217 51 1
218 51 1
219 51 1
220 51 6
221 51 5
222 51 2
223 51 1
224 51 6
225 51 4
226 51 2
227 51 2
228 51 1
229 51 2
230 51 1
231 51 3
232 51 1
233 51 4
234 51 2
235 51 1
236 51 2
237 51 2
238 51 2
239 51 4
240 51 4
241 51 2
242 51 2
243 51 1
244 51 5
245 51 1
246 51 1
247 51 2
248 51 5
249 51 2
250 51 1
1 52 2
2 52 1
3 52 5
4 52 3
5 52 3
6 52 10
7 52 10
8 52 10
9 52 9
10 52 12
11 52 1
12 52 3
13 52 6
14 52 1
15 52 1
16 52 7
17 52 1
18 52 2
19 52 4
20 52 1
21 52 4
22 52 2
23 52 2
24 52 6
25 52 4
26 52 5
27 52 3
28 52 5
29 52 5
30 52 5
31 52 4
32 52 1
33 52 5
34 52 3
35 52 1
36 52 4
37 52 1
38 52 1
39 52 1
40 52 2
41 52 3
42 52 3
43 52 1
44 52 3
45 52 5
46 52 3
47 52 3
48 52 5
49 52 5
50 52 3
51 52 6
52 52 3
53 52 2
54 52 3
55 52 3
56 52 5
57 52 5
58 52 2
59 52 1
60 52 5
61 52 2
62 52 4
63 52 1
64 52 2
65 52 7
66 52 1
67 52 2
68 52 1
69 52 2
70 52 4
71 52 6
72 52 2
73 52 3
74 52 1
75 52 2
76 52 2
77 52 1
78 52 6
79 52 2
80 52 1
81 52 5
83 52 5
84 52 2
85 52 3
86 52 1
87 52 2
88 52 3
89 52 2
90 52 1
91 52 3
92 52 3
93 52 2
94 52 1
95 52 1
96 52 4
97 52 4
98 52 1
99 52 4
100 52 2
101 52 4
102 52 5
103 52 4
104 52 2
105 52 1
106 52 2
108 52 4
109 52 1
110 52 2
111 52 4
112 52 3
113 52 6
114 52 3
115 52 3
116 52 2
117 52 5
118 52 4
119 52 4
120 52 1
122 52 2
123 52 1
125 52 2
127 52 4
128 52 3
129 52 2
130 52 1
131 52 2
132 52 2
133 52 3
134 52 3
135 52 5
136 52 2
137 52 2
138 52 4
139 52 2
140 52 4
141 52 1
142 52 3
143 52 5
144 52 4
145 52 3
146 52 5
147 52 3
148 52 5
149 52 4
150 52 2
151 52 2
152 52 4
153 52 2
154 52 5
155 52 1
156 52 2
157 52 2
158 52 5
159 52 3
160 52 3
161 52 2
162 52 8
163 52 3
164 52 3
165 52 2
166 52 4
167 52 1
168 52 4
169 52 3
170 52 2
171 52 1
173 52 3
175 52 3
177 52 1
178 52 1
179 52 4
180 52 4
182 52 2
183 52 2
184 52 2
186 52 2
187 52 2
188 52 3
189 52 2
190 52 3
191 52 6
192 52 1
193 52 3
194 52 6
195 52 2
196 52 2
197 52 1
198 52 1
199 52 3
200 52 4
202 52 2
203 52 1
204 52 6
205 52 4
206 52 3
207 52 2
208 52 3
209 52 2
211 52 4
212 52 3
213 52 1
214 52 1
215 52 3
216 52 1
217 52 2
218 52 1
219 52 5
220 52 1
221 52 3
222 52 2
223 52 3
224 52 1
225 52 2
226 52 3
228 52 3
229 52 2
230 52 5
231 52 2
232 52 4
233 52 1
234 52 1
235 52 4
237 52 2
238 52 3
239 52 3
240 52 3
241 52 2
242 52 4
243 52 2
244 52 4
245 52 1
246 52 1
247 52 4
248 52 4
249 52 4
250 52 1
1 53 4
2 53 2
5 53 5
6 53 7
7 53 10
8 53 9
9 53 12
10 53 11
11 53 3
12 53 4
13 53 2
14 53 5
15 53 1
16 53 2
17 53 3
18 53 5
19 53 4
20 53 3
21 53 3
22 53 3
23 53 3
24 53 4
25 53 3
26 53 3
27 53 2
28 53 2
29 53 5
31 53 5
32 53 1
33 53 1
34 53 2
35 53 3
36 53 2
37 53 4
38 53 1
39 53 1
40 53 3
41 53 4
43 53 3
44 53 1
45 53 1
48 53 3
49 53 1
50 53 4
51 53 3
52 53 3
53 53 2
54 53 1
55 53 1
56 53 3
57 53 2
58 53 4
59 53 1
60 53 1
61 53 1
62 53 1
64 53 4
65 53 3
67 53 2
68 53 4
69 53 2
70 53 1
71 53 2
72 53 1
73 53 2
74 53 3
75 53 2
76 53 3
77 53 5
78 53 5
79 53 2
81 53 1
82 53 3
83 53 3
84 53 4
85 53 2
86 53 3
87 53 4
88 53 2
89 53 3
90 53 3
91 53 2
92 53 2
93 53 3
94 53 3
95 53 2
96 53 7
97 53 4
98 53 2
99 53 2
100 53 4
101 53 1
102 53 2
103 53 2
104 53 2
106 53 3
107 53 2
108 53 2
109 53 3
110 53 4
111 53 4
112 53 4
113 53 1
114 53 2
115 53 2
117 53 1
118 53 2
119 53 1
120 53 1
121 53 1
122 53 2
123 53 5
125 53 3
126 53 1
127 53 2
128 53 2
129 53 4
130 53 4
131 53 1
132 53 4
133 53 3
134 53 3
135 53 3
136 53 4
137 53 3
138 53 5
139 53 3
140 53 5
141 53 2
142 53 1
143 53 2
144 53 3
145 53 1
146 53 2
147 53 3
148 53 1
149 53 3
150 53 2
151 53 1
152 53 3
153 53 2
154 53 2
156 53 3
157 53 2
158 53 2
159 53 1
160 53 2
161 53 2
162 53 1
163 53 1
164 53 4
165 53 2
166 53 2
167 53 2
168 53 5
169 53 7
170 53 1
171 53 2
172 53 2
173 53 1
174 53 2
175 53 2
178 53 3
179 53 1
180 53 4
181 53 1
183 53 1
184 53 1
185 53 2
186 53 3
187 53 3
191 53 4
192 53 1
193 53 5
194 53 1
195 53 2
196 53 2
197 53 2
198 53 1
199 53 3
200 53 2
201 53 7
202 53 4
203 53 2
204 53 2
205 53 5
206 53 4
207 53 1
208 53 4
209 53 2
210 53 1
211 53 2
212 53 3
213 53 3
214 53 4
215 53 1
216 53 1
217 53 2
218 53 9
219 53 1
221 53 2
222 53 2
223 53 2
224 53 4
225 53 2
226 53 2
227 53 6
228 53 3
229 53 2
230 53 5
231 53 1
232 53 3
233 53 3
234 53 4
235 53 1
236 53 2
237 53 1
238 53 3
239 53 2
240 53 2
241 53 3
242 53 3
243 53 3
244 53 2
245 53 3
246 53 3
247 53 2
248 53 1
249 53 2
250 53 5
1 54 2
2 54 2
4 54 4
5 54 2
6 54 8
7 54 7
8 54 8
9 54 8
10 54 13
12 54 3
13 54 1
17 54 3
18 54 3
19 54 1
20 54 6
21 54 1
22 54 1
23 54 3
24 54 3
25 54 2
26 54 3
27 54 2
28 54 1
29 54 2
30 54 4
31 54 3
32 54 3
33 54 5
34 54 2
36 54 5
37 54 5
39 54 4
40 54 4
41 54 4
42 54 6
43 54 3
45 54 3
46 54 3
47 54 5
48 54 1
49 54 4
51 54 3
52 54 3
53 54 2
54 54 3
55 54 3
56 54 5
57 54 2
58 54 2
59 54 1
60 54 1
61 54 4
62 54 2
63 54 4
64 54 4
65 54 5
66 54 5
67 54 1
68 54 1
69 54 1
70 54 2
71 54 1
72 54 1
73 54 2
74 54 3
75 54 3
76 54 1
77 54 2
78 54 2
79 54 5
80 54 3
81 54 3
82 54 2
83 54 6
84 54 1
85 54 3
86 54 4
88 54 2
89 54 2
91 54 3
92 54 1
93 54 2
95 54 6
96 54 1
97 54 2
98 54 2
99 54 4
100 54 3
101 54 2
102 54 2
103 54 3
104 54 4
105 54 2
106 54 3
107 54 4
108 54 2
109 54 1
110 54 6
111 54 2
113 54 1
114 54 3
115 54 4
116 54 1
117 54 1
118 54 2
119 54 2
120 54 3
121 54 2
122 54 3
123 54 1
124 54 4
125 54 4
126 54 4
127 54 4
128 54 2
129 54 6
130 54 7
131 54 4
133 54 2
134 54 5
137 54 4
138 54 2
139 54 1
141 54 5
142 54 3
143 54 1
144 54 1
145 54 2
146 54 3
147 54 1
148 54 3
149 54 5
150 54 4
151 54 5
152 54 1
153 54 3
154 54 1
155 54 2
156 54 3
157 54 6
158 54 4
161 54 4
163 54 2
167 54 4
168 54 7
169 54 4
170 54 3
171 54 3
173 54 1
174 54 4
175 54 3
176 54 3
177 54 3
178 54 2
179 54 3
180 54 4
181 54 1
183 54 1
184 54 1
185 54 6
186 54 1
187 54 1
188 54 3
189 54 5
190 54 5
191 54 5
192 54 1
193 54 6
194 54 2
195 54 1
196 54 3
197 54 2
198 54 2
199 54 2
200 54 4
201 54 3
202 54 2
203 54 3
204 54 1
205 54 3
206 54 3
207 54 2
208 54 3
209 54 2
210 54 4
211 54 5
212 54 4
213 54 2
214 54 1
215 54 1
216 54 1
217 54 2
218 54 2
219 54 2
220 54 1
221 54 5
222 54 1
223 54 2
224 54 4
225 54 1
226 54 2
227 54 3
228 54 2
229 54 1
230 54 1
232 54 4
233 54 4
234 54 3
236 54 1
237 54 1
238 54 2
239 54 1
240 54 2
241 54 5
242 54 1
243 54 1
244 54 2
245 54 2
246 54 2
247 54 2
248 54 4
249 54 3
1 55 3
2 55 3
4 55 5
5 55 2
6 55 2
7 55 7
8 55 8
9 55 9
10 55 12
11 55 1
12 55 3
13 55 1
14 55 3
17 55 5
18 55 1
19 55 4
20 55 3
21 55 2
22 55 1
23 55 3
24 55 8
25 55 1
26 55 1
27 55 3
29 55 2
31 55 3
32 55 3
33 55 2
34 55 4
35 55 1
36 55 1
37 55 5
38 55 3
39 55 2
40 55 2
41 55 3
42 55 2
43 55 5
44 55 1
45 55 2
46 55 4
47 55 6
48 55 2
49 55 1
50 55 1
51 55 1
52 55 3
53 55 3
54 55 3
55 55 2
56 55 3
58 55 2
59 55 4
60 55 2
61 55 2
62 55 1
63 55 4
64 55 2
65 55 1
66 55 5
68 55 2
70 55 2
71 55 1
72 55 1
73 55 3
74 55 4
76 55 3
77 55 3
79 55 4
81 55 2
82 55 1
83 55 2
84 55 3
85 55 3
86 55 2
87 55 2
88 55 2
89 55 4
91 55 1
92 55 1
93 55 1
94 55 3
95 55 2
96 55 1
97 55 3
98 55 3
99 55 3
100 55 5
101 55 1
102 55 3
103 55 5
104 55 4
105 55 4
106 55 2
107 55 3
108 55 2
109 55 4
110 55 3
111 55 2
112 55 3
113 55 1
114 55 3
115 55 4
116 55 3
117 55 5
118 55 5
119 55 5
120 55 2
121 55 1
122 55 3
123 55 2
125 55 1
126 55 1
127 55 3
128 55 2
129 55 2
131 55 6
132 55 3
133 55 1
134 55 2
136 55 5
137 55 2
138 55 1
139 55 4
140 55 3
141 55 1
142 55 5
143 55 4
144 55 3
145 55 2
146 55 2
147 55 5
148 55 2
150 55 2
151 55 2
152 55 2
153 55 5
154 55 2
155 55 1
156 55 3
157 55 2
158 55 5
159 55 3
160 55 3
161 55 2
162 55 2
163 55 2
164 55 2
165 55 4
166 55 5
167 55 3
168 55 4
169 55 6
170 55 1
171 55 2
172 55 2
173 55 5
174 55 1
175 55 1
176 55 5
177 55 2
179 55 1
180 55 1
181 55 3
182 55 1
183 55 1
184 55 4
186 55 4
187 55 4
189 55 4
190 55 5
191 55 3
192 55 3
194 55 1
195 55 1
196 55 2
198 55 3
200 55 1
201 55 1
202 55 4
203 55 1
204 55 4
205 55 3
206 55 2
207 55 5
208 55 4
209 55 2
210 55 3
211 55 7
212 55 1
213 55 2
214 55 2
215 55 2
216 55 2
219 55 3
220 55 2
221 55 4
222 55 3
223 55 3
224 55 5
225 55 5
226 55 3
229 55 6
230 55 1
231 55 1
232 55 3
234 55 2
235 55 4
237 55 4
238 55 3
239 55 3
240 55 2
241 55 4
242 55 2
243 55 2
244 55 3
245 55 2
246 55 1
247 55 2
248 55 1
249 55 2
250 55 3
1 56 2
2 56 2
3 56 4
4 56 4
5 56 5
6 56 10
7 56 6
8 56 11
9 56 9
10 56 13
11 56 2
12 56 6
14 56 3
15 56 5
16 56 4
17 56 1
18 56 2
19 56 2
20 56 2
21 56 2
22 56 4
23 56 1
24 56 5
25 56 3
26 56 1
27 56 3
28 56 2
29 56 1
31 56 1
32 56 6
33 56 3
34 56 3
35 56 2
36 56 1
37 56 2
38 56 1
39 56 1
40 56 4
41 56 2
42 56 3
43 56 3
44 56 4
45 56 3
46 56 1
48 56 3
49 56 1
50 56 3
51 56 5
52 56 4
53 56 3
54 56 2
55 56 4
56 56 2
57 56 5
58 56 4
59 56 3
61 56 1
62 56 3
63 56 3
64 56 2
65 56 4
66 56 3
67 56 3
68 56 3
69 56 2
70 56 3
71 56 2
72 56 2
73 56 2
74 56 2
75 56 3
76 56 2
77 56 3
78 56 5
79 56 5
80 56 4
81 56 4
82 56 4
83 56 1
84 56 1
85 56 1
86 56 3
87 56 3
88 56 5
89 56 2
90 56 2
91 56 3
93 56 2
94 56 1
95 56 3
96 56 2
97 56 6
98 56 3
99 56 4
100 56 3
101 56 1
102 56 2
103 56 1
104 56 3
106 56 1
107 56 1
108 56 5
110 56 3
113 56 5
114 56 6
115 56 2
116 56 3
117 56 2
118 56 2
119 56 4
120 56 3
121 56 2
122 56 7
123 56 7
124 56 1
125 56 1
126 56 1
127 56 4
128 56 2
129 56 4
130 56 3
131 56 4
132 56 4
133 56 4
134 56 3
135 56 3
136 56 1
137 56 4
138 56 4
139 56 2
140 56 4
141 56 3
142 56 2
143 56 3
144 56 1
145 56 9
146 56 1
147 56 4
148 56 1
150 56 3
151 56 2
152 56 1
154 56 1
155 56 4
156 56 4
157 56 3
158 56 2
159 56 3
160 56 2
162 56 2
163 56 2
164 56 1
166 56 2
167 56 4
170 56 4
171 56 3
172 56 1
173 56 3
174 56 4
175 56 1
176 56 2
177 56 3
178 56 2
179 56 3
180 56 2
181 56 3
182 56 3
183 56 3
184 56 4
185 56 2
186 56 1
187 56 3
188 56 3
189 56 2
190 56 2
191 56 2
193 56 1
194 56 3
195 56 2
196 56 4
197 56 2
198 56 1
199 56 1
200 56 4
201 56 2
202 56 2
203 56 3
204 56 4
205 56 3
206 56 4
208 56 2
209 56 2
210 56 2
213 56 4
214 56 3
215 56 3
216 56 3
217 56 1
218 56 2
219 56 2
220 56 2
221 56 1
222 56 3
223 56 4
224 56 2
225 56 5
226 56 1
227 56 1
228 56 2
230 56 3
231 56 5
232 56 2
233 56 1
234 56 4
235 56 1
236 56 4
237 56 1
239 56 4
240 56 4
241 56 3
243 56 6
245 56 6
247 56 2
248 56 6
249 56 2
250 56 3
1 57 2
2 57 3
3 57 1
4 57 2
5 57 2
6 57 10
7 57 11
8 57 9
9 57 11
10 57 15
11 57 3
12 57 4
13 57 2
14 57 4
15 57 1
16 57 3
17 57 3
18 57 2
19 57 2
20 57 5
21 57 3
22 57 1
23 57 1
24 57 1
25 57 1
26 57 6
27 57 4
28 57 2
29 57 2
30 57 1
31 57 1
32 57 2
33 57 2
34 57 3
35 57 3
36 57 4
37 57 3
38 57 4
39 57 2
40 57 2
41 57 1
42 57 2
43 57 5
44 57 3
45 57 1
46 57 2
47 57 6
49 57 4
50 57 5
51 57 2
52 57 4
53 57 2
54 57 3
55 57 3
56 57 5
57 57 5
58 57 3
59 57 5
60 57 3
61 57 4
62 57 3
63 57 2
64 57 5
65 57 1
66 57 1
67 57 4
68 57 4
69 57 2
70 57 1
71 57 3
72 57 7
73 57 4
74 57 1
75 57 3
77 57 5
78 57 1
79 57 2
80 57 4
81 57 3
82 57 2
83 57 3
85 57 4
86 57 1
87 57 4
88 57 3
89 57 3
90 57 5
91 57 4
92 57 6
93 57 2
94 57 6
95 57 3
96 57 1
97 57 4
99 57 2
100 57 2
101 57 3
102 57 1
103 57 4
104 57 2
105 57 1
106 57 5
107 57 1
108 57 2
109 57 5
110 57 1
111 57 4
112 57 2
113 57 4
114 57 2
115 57 1
116 57 2
117 57 5
118 57 3
119 57 2
120 57 5
122 57 5
123 57 5
125 57 5
126 57 6
127 57 2
128 57 2
129 57 2
130 57 3
131 57 2
132 57 4
133 57 2
134 57 1
135 57 1
136 57 1
137 57 6
138 57 2
139 57 1
140 57 2
141 57 1
142 57 2
143 57 3
144 57 1
145 57 2
147 57 1
148 57 2
149 57 1
151 57 2
152 57 2
153 57 2
154 57 3
155 57 2
156 57 2
157 57 1
158 57 5
159 57 3
160 57 3
161 57 2
162 57 3
163 57 1
164 57 2
165 57 4
166 57 3
167 57 2
170 57 1
171 57 2
172 57 3
173 57 2
174 57 1
176 57 3
178 57 1
179 57 1
180 57 4
181 57 3
182 57 3
183 57 1
185 57 2
187 57 1
188 57 2
189 57 7
190 57 1
191 57 7
192 57 2
193 57 1
194 57 2
195 57 1
196 57 4
197 57 2
198 57 5
200 57 2
201 57 3
202 57 3
203 57 6
204 57 5
205 57 5
206 57 1
207 57 1
208 57 1
209 57 2
210 57 1
211 57 3
212 57 1
213 57 3
214 57 1
215 57 2
216 57 2
217 57 1
219 57 3
220 57 2
221 57 6
222 57 2
224 57 3
225 57 4
226 57 2
227 57 4
228 57 2
229 57 3
230 57 2
233 57 1
234 57 3
235 57 2
236 57 3
237 57 8
238 57 1
239 57 4
240 57 7
241 57 1
242 57 2
243 57 3
244 57 4
245 57 3
246 57 2
247 57 2
248 57 1
249 57 3
250 57 2
1 58 3
2 58 4
3 58 2
4 58 1
5 58 3
6 58 7
7 58 10
8 58 9
9 58 11
10 58 12
11 58 1
13 58 4
14 58 6
15 58 1
16 58 2
17 58 1
18 58 2
19 58 3
20 58 1
21 58 4
22 58 3
23 58 3
24 58 8
25 58 4
26 58 3
27 58 2
28 58 3
29 58 2
30 58 4
31 58 2
32 58 4
33 58 1
34 58 4
35 58 3
36 58 2
37 58 2
38 58 1
39 58 3
40 58 1
41 58 3
42 58 2
43 58 4
44 58 2
45 58 4
46 58 1
47 58 4
48 58 2
49 58 5
50 58 4
51 58 1
52 58 1
53 58 3
54 58 1
55 58 2
56 58 3
57 58 3
58 58 2
59 58 4
61 58 3
62 58 1
63 58 2
64 58 6
65 58 2
66 58 1
67 58 2
68 58 2
69 58 2
70 58 2
71 58 1
72 58 1
73 58 2
74 58 1
76 58 2
77 58 4
79 58 3
80 58 4
81 58 6
82 58 4
83 58 1
84 58 3
85 58 3
86 58 4
87 58 4
88 58 3
89 58 1
90 58 2
91 58 1
92 58 1
93 58 2
94 58 3
95 58 3
96 58 3
97 58 5
98 58 2
99 58 3
100 58 1
101 58 2
102 58 2
104 58 3
105 58 5
106 58 5
107 58 3
108 58 8
109 58 2
110 58 1
111 58 3
112 58 1
114 58 2
115 58 2
116 58 2
117 58 2
118 58 1
119 58 3
120 58 3
121 58 2
122 58 2
123 58 3
124 58 3
125 58 1
126 58 1
127 58 5
128 58 1
129 58 1
130 58 4
131 58 2
132 58 3
133 58 1
134 58 1
136 58 1
137 58 1
138 58 1
139 58 6
141 58 3
142 58 4
143 58 2
144 58 5
145 58 1
146 58 1
147 58 2
149 58 5
150 58 2
151 58 5
152 58 2
154 58 2
155 58 1
156 58 3
157 58 1
158 58 3
159 58 1
160 58 1
161 58 2
162 58 3
163 58 3
164 58 3
166 58 2
167 58 2
168 58 2
169 58 4
170 58 4
171 58 1
172 58 4
173 58 1
174 58 2
175 58 3
176 58 6
177 58 3
178 58 2
179 58 1
180 58 3
181 58 1
182 58 2
183 58 2
184 58 2
185 58 3
186 58 4
187 58 1
188 58 4
189 58 3
190 58 1
191 58 4
192 58 4
193 58 1
194 58 2
195 58 1
196 58 2
197 58 2
198 58 1
199 58 1
200 58 2
201 58 3
202 58 6
203 58 6
204 58 2
205 58 2
206 58 3
207 58 3
208 58 2
211 58 1
212 58 4
213 58 3
214 58 1
215 58 2
216 58 2
218 58 2
219 58 2
220 58 3
221 58 4
222 58 1
223 58 1
224 58 3
225 58 2
226 58 5
227 58 1
228 58 6
229 58 3
230 58 2
231 58 1
232 58 2
234 58 1
236 58 3
237 58 4
238 58 1
239 58 2
240 58 2
241 58 3
242 58 2
243 58 2
245 58 2
246 58 2
247 58 2
248 58 1
249 58 2
250 58 2
1 59 2
2 59 4
3 59 8
4 59 3
5 59 1
6 59 17
7 59 12
8 59 8
9 59 7
10 59 11
11 59 4
12 59 2
13 59 1
14 59 3
16 59 1
17 59 5
18 59 1
19 59 1
20 59 1
21 59 3
22 59 1
23 59 1
24 59 3
25 59 2
26 59 4
27 59 6
28 59 4
29 59 2
30 59 2
31 59 3
32 59 3
33 59 1
34 59 1
35 59 2
36 59 1
37 59 2
38 59 5
39 59 4
40 59 1
41 59 6
42 59 3
43 59 4
44 59 3
45 59 3
46 59 2
47 59 2
48 59 5
49 59 5
50 59 2
51 59 1
52 59 3
54 59 1
55 59 5
56 59 2
57 59 1
58 59 3
59 59 4
60 59 1
61 59 3
62 59 1
63 59 2
64 59 3
65 59 2
66 59 3
67 59 5
68 59 7
69 59 1
70 59 2
71 59 2
72 59 4
73 59 1
74 59 3
75 59 1
76 59 2
77 59 5
78 59 4
79 59 5
80 59 2
81 59 1
82 59 3
83 59 5
84 59 3
85 59 3
86 59 2
87 59 4
88 59 4
89 59 3
90 59 5
91 59 2
92 59 2
93 59 2
94 59 1
95 59 5
96 59 4
97 59 1
98 59 1
99 59 1
100 59 1
102 59 4
103 59 2
104 59 3
105 59 3
106 59 1
107 59 4
109 59 1
110 59 3
111 59 2
112 59 5
113 59 1
114 59 3
115 59 6
116 59 2
117 59 1
118 59 3
119 59 2
120 59 5
121 59 2
122 59 5
123 59 5
124 59 3
125 59 1
126 59 2
127 59 4
128 59 1
129 59 4
130 59 4
131 59 1
133 59 3
134 59 3
135 59 4
136 59 1
137 59 3
138 59 1
139 59 3
140 59 5
141 59 2
142 59 1
143 59 5
144 59 1
145 59 5
147 59 4
148 59 4
149 59 3
150 59 2
151 59 4
152 59 3
153 59 1
154 59 1
155 59 2
156 59 3
157 59 2
158 59 3
159 59 3
160 59 5
161 59 3
162 59 6
163 59 4
164 59 6
165 59 2
166 59 3
167 59 1
168 59 3
169 59 1
170 59 2
171 59 2
172 59 4
173 59 1
174 59 1
175 59 5
176 59 5
177 59 1
178 59 2
179 59 3
181 59 1
182 59 1
183 59 4
184 59 1
185 59 3
187 59 3
188 59 3
189 59 5
190 59 6
191 59 2
192 59 2
193 59 2
194 59 4
195 59 4
196 59 1
198 59 3
199 59 4
200 59 2
201 59 3
202 59 3
204 59 1
205 59 4
206 59 1
207 59 1
208 59 3
209 59 1
210 59 3
211 59 2
212 59 2
213 59 2
214 59 2
216 59 3
217 59 1
218 59 1
219 59 3
220 59 5
222 59 1
223 59 4
224 59 2
225 59 1
226 59 4
227 59 3
228 59 4
229 59 4
230 59 1
231 59 1
232 59 2
233 59 4
234 59 3
235 59 2
236 59 2
237 59 3
239 59 4
240 59 4
242 59 3
243 59 3
244 59 1
245 59 3
246 59 3
247 59 2
248 59 4
249 59 1
250 59 3
1 60 6
2 60 5
3 60 3
4 60 2
5 60 4
6 60 3
7 60 13
8 60 7
9 60 8
10 60 16
11 60 2
12 60 3
13 60 2
14 60 3
16 60 5
17 60 2
18 60 1
19 60 4
20 60 4
22 60 2
23 60 2
25 60 1
26 60 1
27 60 3
28 60 3
29 60 3
30 60 2
31 60 1
32 60 3
33 60 2
35 60 3
36 60 5
37 60 2
41 60 2
42 60 3
43 60 3
44 60 1
46 60 2
47 60 2
48 60 3
49 60 4
51 60 2
52 60 2
53 60 3
54 60 2
55 60 3
56 60 2
57 60 1
59 60 4
60 60 4
61 60 3
62 60 2
63 60 1
64 60 3
65 60 2
66 60 1
67 60 2
68 60 2
69 60 3
70 60 2
72 60 2
73 60 2
74 60 2
75 60 3
76 60 2
77 60 3
78 60 3
79 60 2
80 60 1
81 60 2
82 60 5
83 60 4
84 60 1
85 60 5
86 60 7
87 60 1
88 60 2
89 60 4
90 60 2
91 60 3
92 60 3
93 60 3
94 60 2
95 60 4
96 60 1
97 60 3
98 60 3
99 60 2
100 60 1
101 60 2
102 60 3
103 60 5
104 60 4
105 60 2
106 60 3
107 60 2
108 60 4
109 60 2
110 60 4
111 60 2
112 60 2
113 60 5
114 60 4
115 60 2
116 60 2
117 60 1
118 60 6
119 60 1
121 60 2
122 60 1
123 60 4
124 60 4
125 60 2
126 60 1
127 60 2
128 60 3
130 60 3
131 60 4
132 60 5
133 60 3
134 60 4
135 60 1
136 60 2
137 60 5
138 60 1
139 60 6
140 60 1
141 60 5
142 60 1
143 60 5
144 60 2
145 60 6
146 60 5
147 60 2
148 60 3
149 60 1
150 60 4
151 60 3
152 60 1
153 60 3
154 60 5
155 60 2
156 60 1
157 60 4
158 60 1
159 60 2
160 60 6
161 60 2
162 60 1
163 60 1
164 60 2
165 60 4
166 60 2
167 60 4
168 60 2
169 60 3
170 60 4
171 60 1
172 60 1
173 60 1
174 60 5
175 60 1
176 60 3
178 60 3
179 60 3
180 60 1
181 60 6
182 60 1
184 60 3
185 60 7
186 60 2
187 60 3
188 60 3
189 60 1
190 60 3
191 60 2
192 60 2
193 60 2
194 60 1
195 60 3
197 60 2
198 60 4
199 60 1
200 60 4
201 60 3
202 60 2
203 60 4
204 60 2
205 60 5
206 60 5
207 60 2
208 60 2
209 60 3
210 60 2
211 60 3
212 60 8
213 60 4
214 60 1
215 60 1
216 60 1
217 60 4
218 60 3
219 60 1
220 60 2
221 60 3
222 60 1
223 60 3
224 60 4
225 60 2
226 60 6
227 60 3
228 60 1
229 60 3
230 60 4
231 60 4
232 60 3
233 60 1
234 60 3
235 60 7
236 60 4
237 60 4
239 60 4
241 60 4
242 60 2
243 60 1
244 60 3
246 60 3
247 60 2
248 60 2
249 60 1
250 60 1
1 61 3
2 61 3
3 61 2
4 61 2
5 61 1
6 61 12
7 61 14
8 61 9
9 61 8
10 61 11
12 61 2
13 61 1
14 61 1
15 61 1
16 61 2
17 61 2
18 61 1
19 61 3
20 61 1
22 61 4
24 61 4
25 61 3
26 61 7
27 61 2
28 61 1
29 61 2
30 61 2
31 61 1
32 61 2
33 61 3
34 61 4
35 61 3
36 61 1
37 61 2
38 61 3
39 61 2
40 61 3
41 61 2
42 61 3
43 61 1
44 61 1
45 61 3
46 61 4
47 61 10
48 61 3
50 61 2
52 61 3
53 61 2
54 61 2
55 61 3
56 61 3
57 61 2
58 61 1
59 61 2
60 61 1
61 61 3
62 61 3
63 61 4
64 61 3
65 61 3
66 61 6
68 61 3
69 61 2
70 61 3
73 61 3
75 61 2
76 61 3
78 61 1
79 61 1
80 61 2
81 61 3
82 61 1
83 61 6
84 61 2
85 61 3
86 61 3
87 61 3
88 61 1
89 61 6
90 61 1
92 61 3
93 61 4
94 61 4
95 61 1
98 61 1
99 61 6
100 61 2
101 61 2
103 61 2
105 61 3
106 61 5
107 61 2
108 61 4
110 61 2
111 61 3
112 61 2
113 61 1
114 61 1
115 61 2
116 61 2
118 61 3
119 61 1
120 61 3
122 61 3
123 61 5
124 61 1
125 61 5
126 61 2
127 61 3
128 61 1
129 61 3
130 61 4
132 61 2
133 61 4
134 61 2
135 61 4
136 61 2
138 61 2
139 61 3
140 61 3
141 61 1
142 61 2
144 61 4
145 61 2
146 61 4
147 61 5
148 61 3
149 61 3
151 61 5
152 61 7
153 61 5
154 61 4
155 61 3
156 61 3
157 61 2
158 61 2
159 61 4
160 61 3
161 61 5
162 61 6
163 61 2
164 61 4
165 61 2
166 61 3
167 61 3
168 61 1
169 61 2
170 61 4
171 61 4
172 61 2
173 61 4
174 61 4
175 61 3
176 61 4
177 61 2
178 61 2
179 61 3
180 61 2
181 61 2
182 61 5
183 61 6
184 61 2
185 61 1
186 61 2
187 61 1
188 61 2
189 61 2
190 61 4
191 61 3
192 61 1
193 61 2
194 61 4
195 61 2
196 61 3
197 61 4
198 61 4
199 61 3
200 61 4
202 61 2
203 61 4
204 61 6
205 61 4
206 61 2
207 61 6
208 61 2
209 61 2
210 61 1
211 61 4
212 61 1
213 61 2
214 61 4
215 61 1
216 61 1
217 61 3
218 61 2
219 61 2
221 61 4
222 61 4
223 61 1
224 61 3
225 61 3
226 61 1
227 61 3
228 61 1
229 61 2
230 61 4
231 61 3
232 61 1
233 61 5
234 61 3
235 61 1
236 61 2
237 61 1
238 61 1
239 61 1
240 61 4
241 61 4
242 61 2
243 61 2
244 61 2
245 61 3
246 61 3
247 61 3
248 61 4
249 61 7
250 61 3
1 62 2
2 62 1
3 62 5
4 62 2
5 62 2
6 62 11
7 62 13
8 62 4
9 62 10
10 62 8
11 62 2
12 62 5
13 62 4
14 62 1
15 62 2
16 62 3
17 62 3
18 62 3
19 62 2
20 62 1
21 62 1
22 62 3
23 62 1
24 62 3
26 62 3
27 62 4
28 62 3
29 62 4
30 62 4
31 62 3
32 62 5
33 62 2
34 62 1
35 62 3
36 62 1
37 62 1
38 62 1
39 62 1
41 62 2
42 62 3
43 62 5
44 62 2
45 62 1
46 62 3
47 62 1
48 62 2
49 62 2
50 62 2
51 62 1
52 62 2
53 62 4
54 62 1
55 62 2
56 62 3
57 62 2
59 62 7
62 62 4
63 62 3
64 62 2
65 62 1
66 62 5
67 62 4
68 62 5
69 62 4
70 62 1
71 62 2
72 62 3
73 62 5
74 62 3
76 62 1
77 62 2
78 62 4
79 62 3
80 62 1
81 62 3
82 62 2
83 62 2
85 62 1
86 62 2
87 62 3
88 62 2
89 62 1
90 62 2
91 62 3
92 62 3
93 62 5
94 62 6
95 62 2
96 62 2
97 62 3
98 62 3
99 62 1
100 62 3
102 62 2
103 62 2
104 62 2
105 62 3
106 62 2
107 62 1
108 62 1
109 62 1
110 62 5
111 62 3
112 62 1
113 62 6
115 62 4
116 62 2
117 62 2
118 62 1
119 62 2
120 62 2
121 62 1
122 62 1
123 62 2
124 62 2
125 62 3
126 62 4
127 62 3
128 62 5
129 62 2
130 62 3
131 62 5
132 62 1
134 62 5
135 62 2
136 62 1
137 62 1
138 62 1
139 62 1
140 62 4
141 62 2
142 62 2
143 62 3
144 62 3
145 62 4
146 62 4
147 62 2
148 62 2
149 62 1
150 62 2
151 62 3
152 62 2
153 62 5
154 62 2
155 62 1
156 62 2
157 62 3
158 62 5
159 62 3
160 62 4
161 62 2
162 62 2
164 62 2
165 62 3
167 62 4
168 62 1
169 62 5
170 62 2
171 62 3
172 62 3
173 62 3
174 62 2
175 62 3
176 62 2
177 62 1
178 62 4
180 62 3
181 62 4
182 62 3
183 62 2
184 62 3
185 62 2
186 62 1
187 62 2
188 62 5
189 62 1
190 62 5
191 62 2
192 62 3
193 62 1
194 62 2
195 62 5
196 62 4
197 62 4
198 62 2
199 62 1
200 62 2
201 62 1
202 62 2
204 62 3
205 62 1
207 62 3
208 62 3
209 62 1
210 62 4
211 62 3
213 62 3
214 62 3
216 62 1
217 62 3
218 62 2
219 62 2
220 62 3
221 62 4
222 62 2
223 62 2
224 62 3
226 62 5
227 62 5
228 62 1
230 62 2
231 62 1
233 62 1
234 62 2
235 62 1
236 62 1
237 62 3
238 62 6
239 62 4
241 62 3
242 62 1
243 62 4
244 62 2
245 62 2
246 62 2
247 62 1
248 62 3
249 62 1
250 62 1
1 63 4
2 63 3
3 63 6
4 63 1
5 63 5
6 63 9
7 63 14
8 63 14
9 63 9
10 63 17
11 63 1
12 63 5
13 63 1
14 63 3
15 63 1
16 63 6
17 63 2
18 63 5
19 63 2
20 63 1
21 63 2
22 63 1
23 63 2
24 63 1
25 63 1
26 63 2
27 63 8
28 63 1
29 63 3
30 63 4
31 63 1
32 63 2
33 63 1
34 63 1
35 63 2
37 63 6
40 63 2
41 63 3
42 63 3
43 63 4
44 63 2
45 63 4
46 63 5
47 63 3
48 63 1
49 63 1
50 63 2
52 63 3
53 63 3
54 63 2
55 63 1
56 63 2
57 63 2
58 63 1
59 63 1
61 63 2
62 63 3
63 63 3
64 63 1
65 63 4
66 63 3
67 63 4
68 63 6
69 63 2
70 63 2
71 63 5
72 63 2
73 63 2
74 63 4
75 63 2
77 63 4
78 63 2
79 63 2
80 63 3
82 63 3
83 63 4
85 63 3
86 63 4
87 63 2
88 63 3
89 63 2
90 63 2
91 63 2
92 63 3
93 63 2
94 63 6
95 63 5
96 63 4
97 63 4
98 63 4
99 63 2
100 63 3
101 63 3
103 63 2
104 63 1
105 63 2
106 63 3
107 63 1
108 63 2
110 63 1
111 63 2
112 63 3
113 63 4
114 63 4
115 63 4
116 63 3
117 63 4
118 63 3
119 63 1
120 63 5
121 63 1
122 63 1
123 63 1
124 63 1
126 63 3
127 63 2
128 63 2
129 63 1
130 63 5
131 63 4
132 63 3
133 63 3
134 63 2
135 63 4
136 63 5
137 63 4
139 63 4
140 63 2
141 63 1
142 63 2
143 63 1
145 63 1
146 63 2
147 63 2
148 63 4
149 63 3
150 63 1
151 63 3
152 63 2
153 63 1
154 63 2
155 63 6
156 63 1
157 63 3
158 63 1
159 63 8
160 63 4
161 63 3
162 63 1
163 63 2
164 63 2
165 63 1
167 63 1
168 63 5
169 63 2
170 63 1
171 63 8
172 63 1
173 63 1
174 63 2
175 63 2
176 63 3
177 63 2
179 63 2
180 63 1
181 63 2
182 63 3
183 63 6
184 63 3
185 63 2
186 63 1
187 63 2
188 63 1
189 63 3
190 63 4
191 63 2
192 63 4
193 63 3
194 63 2
195 63 5
196 63 5
197 63 4
198 63 1
199 63 2
200 63 3
201 63 2
202 63 5
203 63 1
204 63 3
206 63 4
207 63 5
208 63 2
210 63 1
211 63 4
212 63 3
214 63 2
215 63 2
216 63 4
217 63 4
218 63 1
219 63 3
220 63 3
221 63 2
222 63 1
223 63 2
224 63 3
225 63 4
226 63 1
229 63 2
230 63 2
231 63 1
232 63 2
233 63 1
234 63 6
235 63 2
236 63 4
237 63 4
238 63 2
239 63 3
241 63 6
242 63 3
243 63 2
245 63 3
246 63 2
247 63 2
248 63 5
249 63 5
250 63 3
1 64 4
2 64 1
3 64 5
4 64 3
5 64 5
6 64 12
7 64 11
8 64 11
9 64 8
10 64 15
11 64 3
12 64 2
13 64 8
14 64 3
15 64 1
17 64 2
18 64 3
19 64 3
20 64 3
21 64 4
22 64 1
23 64 2
25 64 2
26 64 2
27 64 3
28 64 1
29 64 3
30 64 3
31 64 2
33 64 2
34 64 2
35 64 1
36 64 3
37 64 4
38 64 3
39 64 4
40 64 2
41 64 5
42 64 2
43 64 2
45 64 4
46 64 3
47 64 1
48 64 2
49 64 2
50 64 2
51 64 5
52 64 1
53 64 4
55 64 1
56 64 3
57 64 2
58 64 5
60 64 5
61 64 1
62 64 2
65 64 3
66 64 5
67 64 3
68 64 2
69 64 3
71 64 2
72 64 3
73 64 2
74 64 4
75 64 1
76 64 2
77 64 1
78 64 4
79 64 3
80 64 3
81 64 2
82 64 1
83 64 6
84 64 2
85 64 3
86 64 3
87 64 2
88 64 2
89 64 6
90 64 2
91 64 4
92 64 2
94 64 3
95 64 3
96 64 7
97 64 2
99 64 3
100 64 3
101 64 2
102 64 7
103 64 4
104 64 3
105 64 2
106 64 2
107 64 2
108 64 2
109 64 1
110 64 3
111 64 3
112 64 2
113 64 1
114 64 4
115 64 4
116 64 3
117 64 3
118 64 5
119 64 1
120 64 3
121 64 2
122 64 1
123 64 2
124 64 3
125 64 3
126 64 6
128 64 5
129 64 3
130 64 4
131 64 6
132 64 1
133 64 3
134 64 6
135 64 2
136 64 3
137 64 4
138 64 3
139 64 1
140 64 2
141 64 3
142 64 2
143 64 3
144 64 4
145 64 4
146 64 1
147 64 1
148 64 3
149 64 4
150 64 3
151 64 1
152 64 1
154 64 1
156 64 3
157 64 2
158 64 4
159 64 1
160 64 2
161 64 8
162 64 1
163 64 3
164 64 3
165 64 3
166 64 6
167 64 1
168 64 5
169 64 2
170 64 2
171 64 1
173 64 1
175 64 6
176 64 6
177 64 2
178 64 5
179 64 5
180 64 2
181 64 9
182 64 4
183 64 3
184 64 2
185 64 1
186 64 2
187 64 4
188 64 3
190 64 5
191 64 1
192 64 1
193 64 1
194 64 4
195 64 3
196 64 1
197 64 1
198 64 1
199 64 2
200 64 4
201 64 3
202 64 4
203 64 2
204 64 2
205 64 4
206 64 4
207 64 1
208 64 4
209 64 1
210 64 2
211 64 1
212 64 2
213 64 1
214 64 2
215 64 2
217 64 1
218 64 2
219 64 4
220 64 5
221 64 2
222 64 3
223 64 3
224 64 6
225 64 5
226 64 4
227 64 1
228 64 2
229 64 4
230 64 1
231 64 1
232 64 3
233 64 1
234 64 2
235 64 1
236 64 3
237 64 3
238 64 6
240 64 3
241 64 2
242 64 5
243 64 3
244 64 4
245 64 4
246 64 4
247 64 1
248 64 2
249 64 2
250 64 2
1 65 1
2 65 5
3 65 2
4 65 5
5 65 5
6 65 11
7 65 9
8 65 12
9 65 16
10 65 10
11 65 4
13 65 3
14 65 2
15 65 3
16 65 3
17 65 4
18 65 1
19 65 4
21 65 2
22 65 2
24 65 2
25 65 4
26 65 2
27 65 2
28 65 4
29 65 1
30 65 3
31 65 4
32 65 3
33 65 2
34 65 3
35 65 1
37 65 1
38 65 4
39 65 3
40 65 5
41 65 2
42 65 3
43 65 2
44 65 2
45 65 1
46 65 2
47 65 3
48 65 3
49 65 1
50 65 2
51 65 1
52 65 1
53 65 3
54 65 2
55 65 1
56 65 4
57 65 2
58 65 4
59 65 1
60 65 5
61 65 2
62 65 2
64 65 4
65 65 2
66 65 2
67 65 5
68 65 2
69 65 1
70 65 1
71 65 5
72 65 3
73 65 1
74 65 3
75 65 2
76 65 3
77 65 1
78 65 4
80 65 3
81 65 1
82 65 2
83 65 5
84 65 1
85 65 2
86 65 1
87 65 1
88 65 2
89 65 2
90 65 1
91 65 5
92 65 4
93 65 2
94 65 4
95 65 2
96 65 3
97 65 1
98 65 4
99 65 2
100 65 5
101 65 4
102 65 4
103 65 2
104 65 2
105 65 5
106 65 1
107 65 3
108 65 3
109 65 2
110 65 1
111 65 4
112 65 1
113 65 1
114 65 7
115 65 2
116 65 3
117 65 1
118 65 5
119 65 3
120 65 4
122 65 3
123 65 4
124 65 3
125 65 1
126 65 5
127 65 2
129 65 3
130 65 3
131 65 2
132 65 4
133 65 1
134 65 4
135 65 1
136 65 1
137 65 1
138 65 5
139 65 2
140 65 2
141 65 1
142 65 3
143 65 2
144 65 5
145 65 1
146 65 3
147 65 5
148 65 3
149 65 1
150 65 2
151 65 2
152 65 2
153 65 4
154 65 3
155 65 5
156 65 3
157 65 2
158 65 5
159 65 2
160 65 2
161 65 4
162 65 4
163 65 4
164 65 4
165 65 2
166 65 5
167 65 4
168 65 2
169 65 1
170 65 1
171 65 1
172 65 3
173 65 2
174 65 5
175 65 3
176 65 1
177 65 1
178 65 4
180 65 1
181 65 2
182 65 3
183 65 2
184 65 2
185 65 3
186 65 3
187 65 6
188 65 1
189 65 5
190 65 2
191 65 1
192 65 3
193 65 3
194 65 3
195 65 1
196 65 1
197 65 1
198 65 2
199 65 4
200 65 1
202 65 2
203 65 1
205 65 2
206 65 4
207 65 3
208 65 3
209 65 4
210 65 1
211 65 3
212 65 3
213 65 2
214 65 2
215 65 2
216 65 1
217 65 3
218 65 1
219 65 3
220 65 3
221 65 3
222 65 1
224 65 2
225 65 2
226 65 1
227 65 4
228 65 1
229 65 2
230 65 6
231 65 3
232 65 1
233 65 3
234 65 4
236 65 3
237 65 3
238 65 2
239 65 3
240 65 2
241 65 2
242 65 2
243 65 3
244 65 1
245 65 3
246 65 2
247 65 4
248 65 1
250 65 3
1 66 1
2 66 4
3 66 2
4 66 3
5 66 1
6 66 6
7 66 17
8 66 6
9 66 9
10 66 9
11 66 1
12 66 3
13 66 3
14 66 2
15 66 3
16 66 2
17 66 10
18 66 5
19 66 1
20 66 2
21 66 4
22 66 3
23 66 1
24 66 1
27 66 1
29 66 1
30 66 3
32 66 3
33 66 2
34 66 3
36 66 3
37 66 1
38 66 2
39 66 3
40 66 1
41 66 1
42 66 2
43 66 3
44 66 4
45 66 4
46 66 3
47 66 5
48 66 4
49 66 5
50 66 5
52 66 2
53 66 2
54 66 6
55 66 1
56 66 5
57 66 3
58 66 6
59 66 3
60 66 3
61 66 2
62 66 2
63 66 1
64 66 2
65 66 2
66 66 4
67 66 1
68 66 3
69 66 4
71 66 1
72 66 4
73 66 1
74 66 3
75 66 5
76 66 2
77 66 1
78 66 2
79 66 4
80 66 2
81 66 4
82 66 3
83 66 4
84 66 2
86 66 3
87 66 2
88 66 6
89 66 1
90 66 6
91 66 3
92 66 1
93 66 1
94 66 5
95 66 1
96 66 1
97 66 2
98 66 5
99 66 5
101 66 3
102 66 2
103 66 3
104 66 3
105 66 2
106 66 2
108 66 2
109 66 3
110 66 2
111 66 3
112 66 2
113 66 3
114 66 5
116 66 2
117 66 3
118 66 5
119 66 1
120 66 3
121 66 2
122 66 2
123 66 2
124 66 3
125 66 2
126 66 4
127 66 3
128 66 3
129 66 1
130 66 1
131 66 1
133 66 1
134 66 1
135 66 2
136 66 2
137 66 1
139 66 2
140 66 3
141 66 2
142 66 4
145 66 1
146 66 3
148 66 4
149 66 2
150 66 4
151 66 2
153 66 6
154 66 2
155 66 3
158 66 2
159 66 5
160 66 4
161 66 2
162 66 3
163 66 3
164 66 2
165 66 3
166 66 4
167 66 4
168 66 5
170 66 2
171 66 2
172 66 4
173 66 4
174 66 3
175 66 1
176 66 3
177 66 2
178 66 1
179 66 2
180 66 4
181 66 1
182 66 3
183 66 3
184 66 4
185 66 2
186 66 5
187 66 3
188 66 2
189 66 4
190 66 2
191 66 1
192 66 1
193 66 2
194 66 2
195 66 4
197 66 2
198 66 4
199 66 1
200 66 3
201 66 5
203 66 6
204 66 3
205 66 2
206 66 4
207 66 1
209 66 3
211 66 6
212 66 5
213 66 2
214 66 1
215 66 2
217 66 3
218 66 5
219 66 2
220 66 1
221 66 3
222 66 3
224 66 3
225 66 3
226 66 1
227 66 6
228 66 4
229 66 3
230 66 4
231 66 2
232 66 3
233 66 1
234 66 5
235 66 2
236 66 5
237 66 1
239 66 4
240 66 2
241 66 1
243 66 5
244 66 4
245 66 1
246 66 1
247 66 6
248 66 1
249 66 3
250 66 3
1 67 4
2 67 4
3 67 3
4 67 2
5 67 4
6 67 8
7 67 10
8 67 10
9 67 8
10 67 10
11 67 3
12 67 1
13 67 1
16 67 1
17 67 5
18 67 3
19 67 3
20 67 4
21 67 2
22 67 3
23 67 4
24 67 3
25 67 1
26 67 5
27 67 2
28 67 2
29 67 4
30 67 2
31 67 4
32 67 2
33 67 4
34 67 1
35 67 1
36 67 3
37 67 3
38 67 1
39 67 2
40 67 6
41 67 1
42 67 4
43 67 2
44 67 5
45 67 4
46 67 5
47 67 3
48 67 2
49 67 5
50 67 4
51 67 4
53 67 3
54 67 1
55 67 1
56 67 2
57 67 2
58 67 1
59 67 2
60 67 2
61 67 2
63 67 2
64 67 3
65 67 2
66 67 4
67 67 1
68 67 2
69 67 2
70 67 2
71 67 3
72 67 4
73 67 1
74 67 5
75 67 1
76 67 2
77 67 2
78 67 3
79 67 4
80 67 1
81 67 4
82 67 3
83 67 4
84 67 5
85 67 3
86 67 6
87 67 5
88 67 2
89 67 2
90 67 5
91 67 4
92 67 2
93 67 4
94 67 1
95 67 1
96 67 2
97 67 2
98 67 1
99 67 1
100 67 1
101 67 4
102 67 4
103 67 4
104 67 4
105 67 3
106 67 4
107 67 2
108 67 4
110 67 4
111 67 4
112 67 1
113 67 2
114 67 6
115 67 1
117 67 2
118 67 2
119 67 1
120 67 1
121 67 3
122 67 1
123 67 1
124 67 2
125 67 6
127 67 4
128 67 3
130 67 1
131 67 1
132 67 3
133 67 5
134 67 3
135 67 3
136 67 5
137 67 1
138 67 2
139 67 3
140 67 6
141 67 1
142 67 3
143 67 1
144 67 1
147 67 5
148 67 2
149 67 1
150 67 3
151 67 3
152 67 3
153 67 5
154 67 2
155 67 6
156 67 3
157 67 5
158 67 4
159 67 5
160 67 1
161 67 2
162 67 1
164 67 1
165 67 2
166 67 2
167 67 1
168 67 3
169 67 3
170 67 3
171 67 5
172 67 1
173 67 1
174 67 5
175 67 5
177 67 2
178 67 2
180 67 2
181 67 1
182 67 5
183 67 3
184 67 2
185 67 2
186 67 2
187 67 2
188 67 2
189 67 4
191 67 2
192 67 4
193 67 1
194 67 2
195 67 4
196 67 4
198 67 2
199 67 1
200 67 2
201 67 2
202 67 3
203 67 2
204 67 6
205 67 3
206 67 3
207 67 2
209 67 2
210 67 2
211 67 4
213 67 2
214 67 3
216 67 1
217 67 5
218 67 3
219 67 3
220 67 3
221 67 3
222 67 3
223 67 2
224 67 2
225 67 8
227 67 3
228 67 5
229 67 3
230 67 3
232 67 3
233 67 5
234 67 1
235 67 3
237 67 3
238 67 3
239 67 7
240 67 2
241 67 3
242 67 6
243 67 2
245 67 4
246 67 3
247 67 3
248 67 3
249 67 2
250 67 2
1 68 1
2 68 3
3 68 2
4 68 2
6 68 4
7 68 11
8 68 13
9 68 11
10 68 15
11 68 1
12 68 4
13 68 3
14 68 5
15 68 3
16 68 6
17 68 1
18 68 3
19 68 5
20 68 2
21 68 1
22 68 2
23 68 2
25 68 3
28 68 2
29 68 1
30 68 3
31 68 4
32 68 3
33 68 2
34 68 2
35 68 7
36 68 3
37 68 1
38 68 1
39 68 3
40 68 2
41 68 3
43 68 5
44 68 2
45 68 3
46 68 2
47 68 6
48 68 3
49 68 4
50 68 2
51 68 2
53 68 1
54 68 3
55 68 3
56 68 1
57 68 3
58 68 2
59 68 1
60 68 2
61 68 1
62 68 2
63 68 3
64 68 3
65 68 2
66 68 7
67 68 3
68 68 1
69 68 4
70 68 1
71 68 5
72 68 1
73 68 3
74 68 1
75 68 2
78 68 5
79 68 2
80 68 3
81 68 4
82 68 1
83 68 4
85 68 3
87 68 3
88 68 4
89 68 3
90 68 3
91 68 3
93 68 3
94 68 1
95 68 2
96 68 2
97 68 1
100 68 2
101 68 3
102 68 6
103 68 1
104 68 4
105 68 3
106 68 3
107 68 2
108 68 2
109 68 1
110 68 1
111 68 2
112 68 5
113 68 7
114 68 1
115 68 4
116 68 4
117 68 1
118 68 4
120 68 5
121 68 3
122 68 2
123 68 1
124 68 4
125 68 3
128 68 3
130 68 5
131 68 1
132 68 1
133 68 3
134 68 6
135 68 2
136 68 5
137 68 3
138 68 4
139 68 2
140 68 4
141 68 2
142 68 3
143 68 3
144 68 5
145 68 2
146 68 1
147 68 3
149 68 1
150 68 4
152 68 4
154 68 3
155 68 4
156 68 1
157 68 2
158 68 5
159 68 4
160 68 1
161 68 3
162 68 3
163 68 7
164 68 1
165 68 4
166 68 4
167 68 1
169 68 2
170 68 1
171 68 6
172 68 3
173 68 2
174 68 4
175 68 2
176 68 4
177 68 3
178 68 5
179 68 1
180 68 1
181 68 2
182 68 1
183 68 5
184 68 4
185 68 2
186 68 2
187 68 3
188 68 2
189 68 1
190 68 3
191 68 2
193 68 3
194 68 1
195 68 1
196 68 5
197 68 4
198 68 3
199 68 7
201 68 5
202 68 3
203 68 2
205 68 1
206 68 4
207 68 4
208 68 2
209 68 5
210 68 3
211 68 3
213 68 1
214 68 2
215 68 3
216 68 1
217 68 7
218 68 2
220 68 2
221 68 1
222 68 2
223 68 2
224 68 4
225 68 5
226 68 1
227 68 3
228 68 2
229 68 2
230 68 6
231 68 2
232 68 2
233 68 2
234 68 3
235 68 5
236 68 2
237 68 1
238 68 5
239 68 1
240 68 4
241 68 8
242 68 2
243 68 2
244 68 6
245 68 2
246 68 1
247 68 1
248 68 4
249 68 3
250 68 2
1 69 1
2 69 3
3 69 1
4 69 4
5 69 2
6 69 12
7 69 6
8 69 13
9 69 10
10 69 14
11 69 2
12 69 5
13 69 1
14 69 3
15 69 1
17 69 1
18 69 2
19 69 2
20 69 3
21 69 2
22 69 5
23 69 5
25 69 1
26 69 3
27 69 1
28 69 3
30 69 2
31 69 3
32 69 1
33 69 4
34 69 2
35 69 2
36 69 2
37 69 3
38 69 1
39 69 3
41 69 1
42 69 3
43 69 3
44 69 4
45 69 1
46 69 2
47 69 2
48 69 2
49 69 1
50 69 4
51 69 2
53 69 3
54 69 1
55 69 1
56 69 2
57 69 1
58 69 1
59 69 5
60 69 4
61 69 5
62 69 1
63 69 1
64 69 7
65 69 1
66 69 2
67 69 3
68 69 4
69 69 2
70 69 1
71 69 3
72 69 3
73 69 1
74 69 1
75 69 2
76 69 1
77 69 3
78 69 1
79 69 4
80 69 3
81 69 2
82 69 4
83 69 3
84 69 3
85 69 4
86 69 2
87 69 2
88 69 2
89 69 1
90 69 2
91 69 5
92 69 1
93 69 2
94 69 1
95 69 2
96 69 3
97 69 8
98 69 3
99 69 1
100 69 3
101 69 3
102 69 2
103 69 6
104 69 4
105 69 4
106 69 1
107 69 3
108 69 3
109 69 3
110 69 5
111 69 1
112 69 2
113 69 3
114 69 3
115 69 3
116 69 1
117 69 1
118 69 5
119 69 6
120 69 4
121 69 4
122 69 3
123 69 3
124 69 3
125 69 5
126 69 3
127 69 2
128 69 1
129 69 1
130 69 5
131 69 1
132 69 2
133 69 4
134 69 2
136 69 1
137 69 2
138 69 2
139 69 1
140 69 2
141 69 3
142 69 2
144 69 1
145 69 2
146 69 5
147 69 1
148 69 3
149 69 5
150 69 1
151 69 3
152 69 2
153 69 3
154 69 1
155 69 3
156 69 1
157 69 1
158 69 3
159 69 3
160 69 2
161 69 3
162 69 3
163 69 4
164 69 2
166 69 2
167 69 1
168 69 3
169 69 4
170 69 3
171 69 4
172 69 3
173 69 2
174 69 4
175 69 2
176 69 2
177 69 2
178 69 4
179 69 3
180 69 1
181 69 2
182 69 1
183 69 4
184 69 2
186 69 5
187 69 4
188 69 2
189 69 3
190 69 6
193 69 1
194 69 1
195 69 4
196 69 4
197 69 7
198 69 4
199 69 2
200 69 1
203 69 2
204 69 3
206 69 2
207 69 1
208 69 2
209 69 4
210 69 1
211 69 6
212 69 2
213 69 1
214 69 4
215 69 2
216 69 3
217 69 1
218 69 6
219 69 2
220 69 3
221 69 3
223 69 2
225 69 2
226 69 2
227 69 5
228 69 1
229 69 4
230 69 6
231 69 3
232 69 3
234 69 3
235 69 4
236 69 4
237 69 4
238 69 4
239 69 1
240 69 2
241 69 1
242 69 2
243 69 2
244 69 4
245 69 4
246 69 1
247 69 2
248 69 2
249 69 2
250 69 2
1 70 2
3 70 4
4 70 4
5 70 3
6 70 6
7 70 17
8 70 10
9 70 13
10 70 7
11 70 2
12 70 5
13 70 1
14 70 3
15 70 1
16 70 3
17 70 2
18 70 4
19 70 2
20 70 2
21 70 2
22 70 1
23 70 8
24 70 3
25 70 5
26 70 1
27 70 1
28 70 2
29 70 4
30 70 2
31 70 4
32 70 4
33 70 3
34 70 4
35 70 2
36 70 2
37 70 2
38 70 3
39 70 4
40 70 2
41 70 5
42 70 2
43 70 2
44 70 6
45 70 6
46 70 2
47 70 3
48 70 3
49 70 2
50 70 1
51 70 3
52 70 2
53 70 1
54 70 2
55 70 4
56 70 2
57 70 1
60 70 1
61 70 3
62 70 4
63 70 6
64 70 6
65 70 1
66 70 4
67 70 2
68 70 4
69 70 5
71 70 4
73 70 1
74 70 3
75 70 2
76 70 3
77 70 1
78 70 2
79 70 1
80 70 1
81 70 3
82 70 2
83 70 3
84 70 1
85 70 4
86 70 5
87 70 1
88 70 3
90 70 3
91 70 4
92 70 2
94 70 2
95 70 2
96 70 2
97 70 1
98 70 4
99 70 2
100 70 1
101 70 2
102 70 4
103 70 6
105 70 2
106 70 4
107 70 1
108 70 1
109 70 2
110 70 3
111 70 1
112 70 3
113 70 2
115 70 2
116 70 1
117 70 1
119 70 2
120 70 1
122 70 2
123 70 2
124 70 1
125 70 2
126 70 3
127 70 2
128 70 2
129 70 3
130 70 1
131 70 4
132 70 3
133 70 2
134 70 4
135 70 1
136 70 4
137 70 2
139 70 2
140 70 1
141 70 1
142 70 1
143 70 1
144 70 1
145 70 1
146 70 2
147 70 4
149 70 2
150 70 4
151 70 5
152 70 4
153 70 1
154 70 2
155 70 1
156 70 1
157 70 1
158 70 5
159 70 2
160 70 1
161 70 2
162 70 1
163 70 2
164 70 1
165 70 1
166 70 3
167 70 3
168 70 6
170 70 6
171 70 4
172 70 1
174 70 3
175 70 3
176 70 2
177 70 4
178 70 2
179 70 3
180 70 1
181 70 3
182 70 3
183 70 2
184 70 5
185 70 2
186 70 2
187 70 4
188 70 2
189 70 4
190 70 1
191 70 4
192 70 2
193 70 3
194 70 3
195 70 2
196 70 2
198 70 2
199 70 2
200 70 2
202 70 2
204 70 1
205 70 4
206 70 4
207 70 2
208 70 3
209 70 4
210 70 3
211 70 5
213 70 6
214 70 3
215 70 1
216 70 2
217 70 3
218 70 4
220 70 2
221 70 1
222 70 2
224 70 1
225 70 1
226 70 3
227 70 2
228 70 3
229 70 5
230 70 2
231 70 1
232 70 1
233 70 3
234 70 8
235 70 2
236 70 2
237 70 1
238 70 3
239 70 2
240 70 4
241 70 5
242 70 3
243 70 3
244 70 2
245 70 1
246 70 9
247 70 3
248 70 3
249 70 3
250 70 1
1 71 1
2 71 6
3 71 1
4 71 1
6 71 5
7 71 10
8 71 8
9 71 13
10 71 13
11 71 1
12 71 4
13 71 3
14 71 2
15 71 5
16 71 3
17 71 1
18 71 4
19 71 1
20 71 1
21 71 4
22 71 2
23 71 3
24 71 1
25 71 3
26 71 4
28 71 5
29 71 2
30 71 2
31 71 1
32 71 7
33 71 2
34 71 1
35 71 2
36 71 1
37 71 2
38 71 3
39 71 2
40 71 2
41 71 1
42 71 2
43 71 2
44 71 3
45 71 2
46 71 1
48 71 5
49 71 2
50 71 3
51 71 2
52 71 3
53 71 3
54 71 1
55 71 2
56 71 2
57 71 3
58 71 3
59 71 2
60 71 1
61 71 2
62 71 3
63 71 2
64 71 1
65 71 7
67 71 2
68 71 4
69 71 3
70 71 2
71 71 1
72 71 2
73 71 4
75 71 1
76 71 2
77 71 1
78 71 3
79 71 7
80 71 5
81 71 2
82 71 2
84 71 2
85 71 1
86 71 4
87 71 1
89 71 2
90 71 3
91 71 1
92 71 3
93 71 2
94 71 2
95 71 2
96 71 2
97 71 1
98 71 3
99 71 4
100 71 3
101 71 3
102 71 2
103 71 1
105 71 2
106 71 1
107 71 8
108 71 1
109 71 2
110 71 5
111 71 4
112 71 1
113 71 4
114 71 3
115 71 3
116 71 7
117 71 2
118 71 2
119 71 3
120 71 1
121 71 4
122 71 2
123 71 3
124 71 2
125 71 2
127 71 3
128 71 4
129 71 3
130 71 1
131 71 2
132 71 7
133 71 4
134 71 1
135 71 3
136 71 1
137 71 4
138 71 4
139 71 3
140 71 2
141 71 1
142 71 1
143 71 2
145 71 5
146 71 1
147 71 1
148 71 3
149 71 1
150 71 3
151 71 1
152 71 2
153 71 3
154 71 4
155 71 2
156 71 8
157 71 3
158 71 2
160 71 5
161 71 1
162 71 7
163 71 3
164 71 1
165 71 1
166 71 1
167 71 4
168 71 4
169 71 2
171 71 3
172 71 4
173 71 1
174 71 4
175 71 2
176 71 3
177 71 2
179 71 3
180 71 3
181 71 1
182 71 5
183 71 2
184 71 1
185 71 5
186 71 2
187 71 4
188 71 2
189 71 3
190 71 1
192 71 2
194 71 1
195 71 3
196 71 2
197 71 2
198 71 1
199 71 5
200 71 2
201 71 2
202 71 4
203 71 4
204 71 2
205 71 6
206 71 5
207 71 6
208 71 2
209 71 5
210 71 2
211 71 2
212 71 5
213 71 2
216 71 2
217 71 4
218 71 2
220 71 4
221 71 1
222 71 2
223 71 4
224 71 4
225 71 2
226 71 4
227 71 1
229 71 1
230 71 1
231 71 5
232 71 5
233 71 3
234 71 5
235 71 5
236 71 1
237 71 5
238 71 4
239 71 2
240 71 1
241 71 6
242 71 3
243 71 1
244 71 1
245 71 5
246 71 1
247 71 5
248 71 2
249 71 3
250 71 3
1 72 1
2 72 3
3 72 4
4 72 1
5 72 3
6 72 10
7 72 11
8 72 9
9 72 9
10 72 8
11 72 3
13 72 1
14 72 1
15 72 2
17 72 5
18 72 4
19 72 4
20 72 5
21 72 6
22 72 1
25 72 5
26 72 7
27 72 2
28 72 2
29 72 2
30 72 2
31 72 3
32 72 1
33 72 2
35 72 4
36 72 3
37 72 4
38 72 5
39 72 1
40 72 1
41 72 2
42 72 2
43 72 3
44 72 2
45 72 2
46 72 3
47 72 3
48 72 1
49 72 2
50 72 2
51 72 2
52 72 2
53 72 2
54 72 1
55 72 7
56 72 2
57 72 3
58 72 1
59 72 4
60 72 5
61 72 4
62 72 3
63 72 5
64 72 5
65 72 2
66 72 3
67 72 6
68 72 2
69 72 4
71 72 4
72 72 4
73 72 2
74 72 1
75 72 2
76 72 2
77 72 6
78 72 1
79 72 5
80 72 5
82 72 3
83 72 1
84 72 2
85 72 2
87 72 3
88 72 2
89 72 1
91 72 4
92 72 1
93 72 1
94 72 2
95 72 3
96 72 1
97 72 5
98 72 6
99 72 4
100 72 3
101 72 4
102 72 5
104 72 3
105 72 7
106 72 1
107 72 4
108 72 3
109 72 2
110 72 5
111 72 1
113 72 5
114 72 4
115 72 2
116 72 6
117 72 1
118 72 3
120 72 5
121 72 2
122 72 2
123 72 2
124 72 4
126 72 5
127 72 2
128 72 3
130 72 3
131 72 3
132 72 2
133 72 1
134 72 2
135 72 3
136 72 3
137 72 3
138 72 3
140 72 2
141 72 1
143 72 1
144 72 2
145 72 3
146 72 2
147 72 2
148 72 2
149 72 5
150 72 7
151 72 2
152 72 2
154 72 1
155 72 3
156 72 2
157 72 2
158 72 1
159 72 3
160 72 1
161 72 1
162 72 5
163 72 2
164 72 2
166 72 1
167 72 4
168 72 4
169 72 2
170 72 2
171 72 1
172 72 4
173 72 1
174 72 2
175 72 6
176 72 1
177 72 3
178 72 3
179 72 2
181 72 3
182 72 5
183 72 2
184 72 3
185 72 4
186 72 5
187 72 2
188 72 3
189 72 4
191 72 4
192 72 1
193 72 2
194 72 3
195 72 4
197 72 6
198 72 2
200 72 4
201 72 2
202 72 2
203 72 2
204 72 2
206 72 3
207 72 1
208 72 2
209 72 5
210 72 3
211 72 4
212 72 3
213 72 3
214 72 3
215 72 3
216 72 2
218 72 2
219 72 5
220 72 3
221 72 3
222 72 3
223 72 3
224 72 3
225 72 3
226 72 1
227 72 3
228 72 4
229 72 4
230 72 3
231 72 3
232 72 3
233 72 3
234 72 2
235 72 1
236 72 3
237 72 2
238 72 3
239 72 3
240 72 1
242 72 1
243 72 4
244 72 1
245 72 3
246 72 7
247 72 1
248 72 3
249 72 1
250 72 2
1 73 5
2 73 3
4 73 4
5 73 1
6 73 12
7 73 13
8 73 14
9 73 12
10 73 15
11 73 5
12 73 4
14 73 1
15 73 3
16 73 4
17 73 1
19 73 2
20 73 3
21 73 4
22 73 3
23 73 4
24 73 5
25 73 2
26 73 3
27 73 1
28 73 3
29 73 6
30 73 2
31 73 1
32 73 2
33 73 1
34 73 3
35 73 2
37 73 4
38 73 4
39 73 1
40 73 1
41 73 3
42 73 5
43 73 2
44 73 1
45 73 3
47 73 5
48 73 3
49 73 4
50 73 2
51 73 5
52 73 5
53 73 2
54 73 2
55 73 2
56 73 2
57 73 3
58 73 2
59 73 2
60 73 5
61 73 2
62 73 4
64 73 3
65 73 4
66 73 4
67 73 1
68 73 5
69 73 2
70 73 1
71 73 2
73 73 4
74 73 4
75 73 2
76 73 4
77 73 3
78 73 5
79 73 3
80 73 4
82 73 4
83 73 6
85 73 2
86 73 2
87 73 3
88 73 2
89 73 1
90 73 1
91 73 2
92 73 3
93 73 1
94 73 1
95 73 5
96 73 2
97 73 1
98 73 3
99 73 6
100 73 1
101 73 1
102 73 3
103 73 5
104 73 3
105 73 5
106 73 2
107 73 2
108 73 3
109 73 3
110 73 3
111 73 3
112 73 4
113 73 2
114 73 4
115 73 4
116 73 2
117 73 3
118 73 2
119 73 1
120 73 1
121 73 1
122 73 4
123 73 2
125 73 2
126 73 4
127 73 3
128 73 2
129 73 1
130 73 1
131 73 5
132 73 3
133 73 5
134 73 2
135 73 1
136 73 5
137 73 3
138 73 1
139 73 1
140 73 2
141 73 1
142 73 1
143 73 3
144 73 3
145 73 4
146 73 4
147 73 8
149 73 3
150 73 3
151 73 3
152 73 3
153 73 3
154 73 6
155 73 1
156 73 3
157 73 3
158 73 3
159 73 1
160 73 4
161 73 4
162 73 2
163 73 1
164 73 2
165 73 1
166 73 1
167 73 3
168 73 1
170 73 5
171 73 2
172 73 1
173 73 3
174 73 3
175 73 4
176 73 3
177 73 1
178 73 1
179 73 4
180 73 7
181 73 1
182 73 5
183 73 1
184 73 3
185 73 2
186 73 3
187 73 2
188 73 3
189 73 1
190 73 2
191 73 2
192 73 3
193 73 6
194 73 5
195 73 3
196 73 3
197 73 4
198 73 1
199 73 3
200 73 6
201 73 4
202 73 3
204 73 1
205 73 3
206 73 1
207 73 1
209 73 1
210 73 1
211 73 1
212 73 5
213 73 3
214 73 4
215 73 3
216 73 2
217 73 2
218 73 1
219 73 3
220 73 1
221 73 4
222 73 3
223 73 1
224 73 3
225 73 3
226 73 2
228 73 4
229 73 7
230 73 5
231 73 1
232 73 3
233 73 2
235 73 2
236 73 2
238 73 3
239 73 1
240 73 1
241 73 3
242 73 2
243 73 2
244 73 4
245 73 4
246 73 1
247 73 3
248 73 5
249 73 2
250 73 2
1 74 2
2 74 2
3 74 4
4 74 2
5 74 1
6 74 16
7 74 6
8 74 6
9 74 13
10 74 8
11 74 1
13 74 1
14 74 1
15 74 3
16 74 2
17 74 1
18 74 2
19 74 3
20 74 2
21 74 2
22 74 3
23 74 2
24 74 6
25 74 3
26 74 4
27 74 4
28 74 4
29 74 2
30 74 4
31 74 1
33 74 1
34 74 4
35 74 7
36 74 1
37 74 4
38 74 1
39 74 3
40 74 1
41 74 4
42 74 2
43 74 2
44 74 3
45 74 5
46 74 3
47 74 2
48 74 1
49 74 2
50 74 4
51 74 1
52 74 3
53 74 2
54 74 7
55 74 5
56 74 1
57 74 2
58 74 4
59 74 2
60 74 1
61 74 3
62 74 2
63 74 1
65 74 6
66 74 3
67 74 2
68 74 1
69 74 3
70 74 2
71 74 1
72 74 1
73 74 1
74 74 2
75 74 1
76 74 2
77 74 3
78 74 1
79 74 2
81 74 2
83 74 2
84 74 4
85 74 2
86 74 3
87 74 1
88 74 1
89 74 1
90 74 4
92 74 3
93 74 3
94 74 2
95 74 4
96 74 4
99 74 3
100 74 3
101 74 1
102 74 2
103 74 3
104 74 3
105 74 3
106 74 5
108 74 3
110 74 6
111 74 3
112 74 2
113 74 4
114 74 1
115 74 3
117 74 3
118 74 4
119 74 3
120 74 3
121 74 8
122 74 4
123 74 3
124 74 3
125 74 2
126 74 3
127 74 2
128 74 5
129 74 1
130 74 6
131 74 3
132 74 1
133 74 4
134 74 3
135 74 5
137 74 6
138 74 1
139 74 3
140 74 2
141 74 3
142 74 2
143 74 2
144 74 2
145 74 1
146 74 2
147 74 6
148 74 4
149 74 4
150 74 2
151 74 1
152 74 1
153 74 2
154 74 3
155 74 5
156 74 1
157 74 2
158 74 1
159 74 1
160 74 1
161 74 1
162 74 2
163 74 2
164 74 3
165 74 4
166 74 6
167 74 3
168 74 3
169 74 1
170 74 1
171 74 2
172 74 4
173 74 5
175 74 3
176 74 1
177 74 2
178 74 1
179 74 3
180 74 2
181 74 3
182 74 2
184 74 1
185 74 6
186 74 3
187 74 7
188 74 1
189 74 4
190 74 3
191 74 2
192 74 1
193 74 3
194 74 2
195 74 3
196 74 4
197 74 2
198 74 1
199 74 2
200 74 6
201 74 3
202 74 3
203 74 6
205 74 2
207 74 3
208 74 5
209 74 2
210 74 5
211 74 2
212 74 1
213 74 4
214 74 2
215 74 3
217 74 1
218 74 4
219 74 2
220 74 2
221 74 3
222 74 1
223 74 3
224 74 3
225 74 5
226 74 3
227 74 1
228 74 6
229 74 2
230 74 3
231 74 1
232 74 2
233 74 2
234 74 3
235 74 7
236 74 3
237 74 3
239 74 5
240 74 4
241 74 1
242 74 4
243 74 1
244 74 3
245 74 2
246 74 2
247 74 2
248 74 1
249 74 4
250 74 3
1 75 5
3 75 1
5 75 5
6 75 16
7 75 10
8 75 11
9 75 11
10 75 11
11 75 4
12 75 3
13 75 2
15 75 2
16 75 2
17 75 3
18 75 2
19 75 1
20 75 3
21 75 3
22 75 5
23 75 5
24 75 4
25 75 1
26 75 2
27 75 1
28 75 2
29 75 3
30 75 2
31 75 3
32 75 4
33 75 3
34 75 1
35 75 3
36 75 4
37 75 1
38 75 6
40 75 4
41 75 2
42 75 1
43 75 3
44 75 2
45 75 5
46 75 2
47 75 2
48 75 8
49 75 3
50 75 3
51 75 2
52 75 2
53 75 2
54 75 1
55 75 2
56 75 3
58 75 3
59 75 4
60 75 2
61 75 1
62 75 2
63 75 3
64 75 2
65 75 2
66 75 3
67 75 1
68 75 3
69 75 1
71 75 3
72 75 2
73 75 2
74 75 1
75 75 2
76 75 2
77 75 3
78 75 1
79 75 2
80 75 4
81 75 5
83 75 5
84 75 4
85 75 3
86 75 2
87 75 1
88 75 1
90 75 2
91 75 5
92 75 4
93 75 2
94 75 5
95 75 2
96 75 3
98 75 3
99 75 3
100 75 2
101 75 6
102 75 1
103 75 2
104 75 4
105 75 3
106 75 2
107 75 3
108 75 3
110 75 2
111 75 1
112 75 5
113 75 1
114 75 4
115 75 3
116 75 1
117 75 4
118 75 2
119 75 3
120 75 3
121 75 2
124 75 1
125 75 2
126 75 2
127 75 2
128 75 2
129 75 5
130 75 5
131 75 4
132 75 3
133 75 2
134 75 3
135 75 3
136 75 4
137 75 6
138 75 3
139 75 2
140 75 5
141 75 4
142 75 4
143 75 2
144 75 1
146 75 3
148 75 3
149 75 4
150 75 5
151 75 3
153 75 2
154 75 3
155 75 2
156 75 2
157 75 2
158 75 2
159 75 1
160 75 1
161 75 4
162 75 2
163 75 3
164 75 1
165 75 1
166 75 3
167 75 2
168 75 2
169 75 6
170 75 2
171 75 4
172 75 2
173 75 6
174 75 7
175 75 2
176 75 2
177 75 2
178 75 1
180 75 3
181 75 4
182 75 2
183 75 6
184 75 2
186 75 3
187 75 3
188 75 3
189 75 4
190 75 1
191 75 2
192 75 2
193 75 1
194 75 3
195 75 5
196 75 3
197 75 6
198 75 3
199 75 1
201 75 1
202 75 4
203 75 2
204 75 5
205 75 1
206 75 1
207 75 3
208 75 1
209 75 3
210 75 3
211 75 1
212 75 1
213 75 4
215 75 2
216 75 3
217 75 3
218 75 2
219 75 4
220 75 1
222 75 4
223 75 5
224 75 1
225 75 3
226 75 1
228 75 2
229 75 1
230 75 1
231 75 3
232 75 5
233 75 1
234 75 7
235 75 1
237 75 1
238 75 4
240 75 4
242 75 3
243 75 4
245 75 3
246 75 1
247 75 3
248 75 5
249 75 2
250 75 4
1 76 3
2 76 2
3 76 3
4 76 4
5 76 5
6 76 11
7 76 4
8 76 11
9 76 8
10 76 5
11 76 2
12 76 1
13 76 1
14 76 5
15 76 4
16 76 3
17 76 6
18 76 5
19 76 2
20 76 1
21 76 3
22 76 2
23 76 3
25 76 4
26 76 1
27 76 1
29 76 2
30 76 2
31 76 2
32 76 4
33 76 2
34 76 1
35 76 1
36 76 4
37 76 2
38 76 1
39 76 2
40 76 3
41 76 4
42 76 3
43 76 1
45 76 1
48 76 5
49 76 1
50 76 2
51 76 3
52 76 5
53 76 3
54 76 1
55 76 1
57 76 2
58 76 2
59 76 2
61 76 3
62 76 1
63 76 1
64 76 3
65 76 2
66 76 5
67 76 4
68 76 4
69 76 3
70 76 2
71 76 5
72 76 2
73 76 3
74 76 2
75 76 6
76 76 3
77 76 3
78 76 5
79 76 1
80 76 2
82 76 1
83 76 3
84 76 4
85 76 2
86 76 7
87 76 2
88 76 3
89 76 3
90 76 3
92 76 3
93 76 2
94 76 2
95 76 2
96 76 3
97 76 3
99 76 2
100 76 1
101 76 4
103 76 5
104 76 1
105 76 5
106 76 4
107 76 3
108 76 4
109 76 3
110 76 3
111 76 6
112 76 5
113 76 3
114 76 2
115 76 2
116 76 1
117 76 4
118 76 1
120 76 3
121 76 4
122 76 4
123 76 7
124 76 5
126 76 3
127 76 3
128 76 3
129 76 3
130 76 5
131 76 3
132 76 3
133 76 3
134 76 4
135 76 3
136 76 4
137 76 2
138 76 1
139 76 6
140 76 1
141 76 2
142 76 5
143 76 2
144 76 5
145 76 2
146 76 3
147 76 1
148 76 5
149 76 3
150 76 1
151 76 2
152 76 4
153 76 2
154 76 3
155 76 3
156 76 2
158 76 3
159 76 1
161 76 5
162 76 1
164 76 7
165 76 1
167 76 2
168 76 2
169 76 3
170 76 6
171 76 3
172 76 6
173 76 3
174 76 4
175 76 3
176 76 3
177 76 5
178 76 3
179 76 5
180 76 2
181 76 2
182 76 4
183 76 1
184 76 2
185 76 2
187 76 3
188 76 1
189 76 3
190 76 3
191 76 1
192 76 2
193 76 5
194 76 3
195 76 4
196 76 4
197 76 4
198 76 4
199 76 2
200 76 3
201 76 2
202 76 4
203 76 7
204 76 3
205 76 4
206 76 2
207 76 1
208 76 2
210 76 5
211 76 2
212 76 7
213 76 1
214 76 1
215 76 2
216 76 3
217 76 5
219 76 5
220 76 2
221 76 2
222 76 2
224 76 3
225 76 1
226 76 1
227 76 4
228 76 1
229 76 3
230 76 3
231 76 4
232 76 5
233 76 2
234 76 3
235 76 4
236 76 5
237 76 3
238 76 5
239 76 3
240 76 4
241 76 2
243 76 2
245 76 1
246 76 3
247 76 1
248 76 1
249 76 2
250 76 4
1 77 3
2 77 3
3 77 2
4 77 3
5 77 1
6 77 6
7 77 5
8 77 15
9 77 9
10 77 8
11 77 4
12 77 3
14 77 1
15 77 1
16 77 2
17 77 1
18 77 1
19 77 1
22 77 3
23 77 4
24 77 3
25 77 6
26 77 4
27 77 3
29 77 3
30 77 6
31 77 4
32 77 2
33 77 2
34 77 2
35 77 1
36 77 2
37 77 3
38 77 3
39 77 5
40 77 3
41 77 2
42 77 2
43 77 1
44 77 3
45 77 2
46 77 1
48 77 6
51 77 1
52 77 3
53 77 4
54 77 4
55 77 3
56 77 4
57 77 2
58 77 2
59 77 1
60 77 4
61 77 3
62 77 1
63 77 3
64 77 2
65 77 2
66 77 2
67 77 2
68 77 6
69 77 5
70 77 3
71 77 2
72 77 4
73 77 5
74 77 3
75 77 4
76 77 1
77 77 5
79 77 2
80 77 2
81 77 5
83 77 2
84 77 1
85 77 2
86 77 3
87 77 3
89 77 3
90 77 6
91 77 5
92 77 3
93 77 1
94 77 4
96 77 2
97 77 5
98 77 2
99 77 4
100 77 3
101 77 4
102 77 2
103 77 4
104 77 4
105 77 2
107 77 6
108 77 2
109 77 1
110 77 3
111 77 1
112 77 4
113 77 4
114 77 8
116 77 4
117 77 2
118 77 3
119 77 2
120 77 2
122 77 7
123 77 3
124 77 1
125 77 3
126 77 2
127 77 2
128 77 3
129 77 1
130 77 2
131 77 3
132 77 1
133 77 4
134 77 3
135 77 3
136 77 1
137 77 2
138 77 2
139 77 1
140 77 4
141 77 1
142 77 2
143 77 2
144 77 2
145 77 2
146 77 2
147 77 1
148 77 3
149 77 7
150 77 3
151 77 3
152 77 1
153 77 3
154 77 4
155 77 2
156 77 2
157 77 2
158 77 2
159 77 5
160 77 7
161 77 1
162 77 1
164 77 3
165 77 2
166 77 4
167 77 1
168 77 2
169 77 3
170 77 5
171 77 3
172 77 1
173 77 1
174 77 4
175 77 1
176 77 3
177 77 3
178 77 1
179 77 2
180 77 3
181 77 2
182 77 5
183 77 3
184 77 2
185 77 1
186 77 3
187 77 1
188 77 1
189 77 1
190 77 2
191 77 4
192 77 1
193 77 1
194 77 3
195 77 2
196 77 2
197 77 5
198 77 3
199 77 4
200 77 6
202 77 1
203 77 1
204 77 3
205 77 1
206 77 4
207 77 2
208 77 4
209 77 2
210 77 4
211 77 2
212 77 3
213 77 4
215 77 4
216 77 1
217 77 4
218 77 2
219 77 2
220 77 4
221 77 1
222 77 2
223 77 2
224 77 5
225 77 1
226 77 5
228 77 1
229 77 3
230 77 3
231 77 2
232 77 2
233 77 2
234 77 4
235 77 2
236 77 2
237 77 5
238 77 1
239 77 2
240 77 2
241 77 2
242 77 1
243 77 1
244 77 2
245 77 3
246 77 2
247 77 3
248 77 4
249 77 2
250 77 3
1 78 1
2 78 3
3 78 2
4 78 1
5 78 1
6 78 12
7 78 5
8 78 11
9 78 7
10 78 10
11 78 3
12 78 6
13 78 1
14 78 1
15 78 4
16 78 4
17 78 2
18 78 3
19 78 2
20 78 2
21 78 2
22 78 2
23 78 3
24 78 1
25 78 2
26 78 1
27 78 2
28 78 2
29 78 1
30 78 2
31 78 4
32 78 6
33 78 3
34 78 3
35 78 3
36 78 4
37 78 4
38 78 2
39 78 6
40 78 2
41 78 5
42 78 1
43 78 4
44 78 4
45 78 1
46 78 3
47 78 3
48 78 2
49 78 4
50 78 3
51 78 5
52 78 1
53 78 4
54 78 2
55 78 2
56 78 2
57 78 2
58 78 2
59 78 4
60 78 4
61 78 2
62 78 3
63 78 1
64 78 2
65 78 2
66 78 2
67 78 3
68 78 3
69 78 1
70 78 2
71 78 1
72 78 2
73 78 2
74 78 1
75 78 5
76 78 4
77 78 3
78 78 4
79 78 1
80 78 1
81 78 1
82 78 4
83 78 3
84 78 3
85 78 1
86 78 3
87 78 3
88 78 2
89 78 1
90 78 1
91 78 2
92 78 2
94 78 2
96 78 2
97 78 2
98 78 2
99 78 2
100 78 2
101 78 1
102 78 6
103 78 2
105 78 5
106 78 4
107 78 3
108 78 1
109 78 4
110 78 3
111 78 3
112 78 5
113 78 2
114 78 4
115 78 2
116 78 1
117 78 1
118 78 2
119 78 4
120 78 2
121 78 2
122 78 4
123 78 2
124 78 2
125 78 6
126 78 3
127 78 3
128 78 2
129 78 3
130 78 4
131 78 5
132 78 4
133 78 5
134 78 6
135 78 3
136 78 1
137 78 3
138 78 1
139 78 3
140 78 5
141 78 3
142 78 2
143 78 3
144 78 2
145 78 3
146 78 3
147 78 3
149 78 2
150 78 3
151 78 4
152 78 2
153 78 2
154 78 4
155 78 6
156 78 4
157 78 3
158 78 6
159 78 1
160 78 1
161 78 2
162 78 3
163 78 3
164 78 3
166 78 2
167 78 2
168 78 2
169 78 1
170 78 2
171 78 1
172 78 7
173 78 3
174 78 4
175 78 4
176 78 1
177 78 2
178 78 1
179 78 6
180 78 3
181 78 5
182 78 2
183 78 1
185 78 1
186 78 2
187 78 3
188 78 5
189 78 2
190 78 4
191 78 2
192 78 6
193 78 3
194 78 2
195 78 1
196 78 1
197 78 2
198 78 3
199 78 2
200 78 5
201 78 3
202 78 6
203 78 3
204 78 3
205 78 3
207 78 3
208 78 2
209 78 2
210 78 3
211 78 1
212 78 1
213 78 2
214 78 7
215 78 2
216 78 1
217 78 2
218 78 4
219 78 4
220 78 3
222 78 2
223 78 3
224 78 2
225 78 6
226 78 6
227 78 4
228 78 6
229 78 3
230 78 1
231 78 2
232 78 3
233 78 4
234 78 5
235 78 1
236 78 3
237 78 1
238 78 2
239 78 4
240 78 3
241 78 3
242 78 4
243 78 3
244 78 1
245 78 3
246 78 4
247 78 3
248 78 5
250 78 7
1 79 2
2 79 3
3 79 1
4 79 2
5 79 4
6 79 7
7 79 5
8 79 15
9 79 12
10 79 15
11 79 1
13 79 1
14 79 1
15 79 5
16 79 4
17 79 5
18 79 2
19 79 1
20 79 7
21 79 2
22 79 3
23 79 3
24 79 4
25 79 3
26 79 2
27 79 3
28 79 5
31 79 3
32 79 1
33 79 5
35 79 1
36 79 1
37 79 1
38 79 4
39 79 6
40 79 1
41 79 3
42 79 5
43 79 1
44 79 2
45 79 3
46 79 2
47 79 3
48 79 2
49 79 4
50 79 5
51 79 1
53 79 3
55 79 2
56 79 2
58 79 2
59 79 3
61 79 4
62 79 4
63 79 1
64 79 1
65 79 1
66 79 3
67 79 4
68 79 3
69 79 2
70 79 1
71 79 1
72 79 4
73 79 6
74 79 1
75 79 5
76 79 1
77 79 2
78 79 1
79 79 3
80 79 1
81 79 1
82 79 1
83 79 2
84 79 4
85 79 3
87 79 1
89 79 1
90 79 3
92 79 2
93 79 4
94 79 1
95 79 1
97 79 2
98 79 2
100 79 1
101 79 4
102 79 1
103 79 4
104 79 3
105 79 5
106 79 1
107 79 4
108 79 2
109 79 1
110 79 3
111 79 1
112 79 3
113 79 4
114 79 1
115 79 3
116 79 6
117 79 2
118 79 4
119 79 2
120 79 3
122 79 5
123 79 1
124 79 1
125 79 2
126 79 1
127 79 2
128 79 2
129 79 2
130 79 3
131 79 3
132 79 3
133 79 4
134 79 2
135 79 3
136 79 2
137 79 2
138 79 2
139 79 2
140 79 1
141 79 1
143 79 2
146 79 1
147 79 1
148 79 2
149 79 1
150 79 2
151 79 2
152 79 2
153 79 1
154 79 2
155 79 3
156 79 3
159 79 5
160 79 5
161 79 3
162 79 3
163 79 7
164 79 2
165 79 2
166 79 1
168 79 3
169 79 2
170 79 3
171 79 2
172 79 1
173 79 2
174 79 2
175 79 1
176 79 3
177 79 4
178 79 2
179 79 3
180 79 4
181 79 2
182 79 4
183 79 3
184 79 3
185 79 2
186 79 2
187 79 4
188 79 4
190 79 3
191 79 2
192 79 5
193 79 8
195 79 4
196 79 2
197 79 2
198 79 4
199 79 2
200 79 1
201 79 2
202 79 5
203 79 5
204 79 3
205 79 5
206 79 1
207 79 3
208 79 1
209 79 4
210 79 4
211 79 2
212 79 3
213 79 1
214 79 2
215 79 2
216 79 1
217 79 4
218 79 3
219 79 1
220 79 2
221 79 4
222 79 1
223 79 4
224 79 2
225 79 4
226 79 2
227 79 2
228 79 5
229 79 4
230 79 2
231 79 1
232 79 6
233 79 2
234 79 1
235 79 4
236 79 1
237 79 2
238 79 3
240 79 4
241 79 3
243 79 2
245 79 3
246 79 3
247 79 3
248 79 1
249 79 1
250 79 2
1 80 1
2 80 1
3 80 6
4 80 2
5 80 3
6 80 6
7 80 10
8 80 7
9 80 11
10 80 13
11 80 3
13 80 2
14 80 3
15 80 1
16 80 2
17 80 3
18 80 3
19 80 2
20 80 2
21 80 3
22 80 2
23 80 2
24 80 3
25 80 4
26 80 1
27 80 3
30 80 3
31 80 4
32 80 5
33 80 5
35 80 2
36 80 2
37 80 1
38 80 2
39 80 2
40 80 5
41 80 3
42 80 6
43 80 5
44 80 5
45 80 4
46 80 1
47 80 1
48 80 2
49 80 2
50 80 5
51 80 5
52 80 1
53 80 2
54 80 2
55 80 3
56 80 3
57 80 4
58 80 2
59 80 4
60 80 4
61 80 4
63 80 5
64 80 4
65 80 3
66 80 4
67 80 1
68 80 1
69 80 3
70 80 1
71 80 1
72 80 4
73 80 3
74 80 1
75 80 1
76 80 3
77 80 2
79 80 1
80 80 1
82 80 3
83 80 1
84 80 3
85 80 2
86 80 1
87 80 2
88 80 2
89 80 3
90 80 4
91 80 2
92 80 3
93 80 2
94 80 3
95 80 3
96 80 1
97 80 5
98 80 4
99 80 3
100 80 3
101 80 5
102 80 2
103 80 2
104 80 7
105 80 3
106 80 1
107 80 4
108 80 2
109 80 1
110 80 5
111 80 8
112 80 2
113 80 5
114 80 5
115 80 2
116 80 2
118 80 3
119 80 3
120 80 4
121 80 1
122 80 2
123 80 2
125 80 1
126 80 5
127 80 3
129 80 2
130 80 3
132 80 2
133 80 2
134 80 3
135 80 4
136 80 3
137 80 1
138 80 2
139 80 4
141 80 2
142 80 1
143 80 2
144 80 1
145 80 2
146 80 3
147 80 1
149 80 5
150 80 6
151 80 4
152 80 4
153 80 1
154 80 3
155 80 3
156 80 4
157 80 3
158 80 2
159 80 1
160 80 2
161 80 4
163 80 5
164 80 5
165 80 2
166 80 2
167 80 5
168 80 3
169 80 2
170 80 1
171 80 3
172 80 4
173 80 4
174 80 3
175 80 4
176 80 4
177 80 1
178 80 2
179 80 1
180 80 3
181 80 1
182 80 3
183 80 4
185 80 2
186 80 2
187 80 2
188 80 4
189 80 2
190 80 2
191 80 2
192 80 2
193 80 3
194 80 1
196 80 5
197 80 4
198 80 5
199 80 2
200 80 4
201 80 1
202 80 4
203 80 1
204 80 4
205 80 4
206 80 3
207 80 2
208 80 2
209 80 4
210 80 2
211 80 1
212 80 5
213 80 1
214 80 3
215 80 3
216 80 3
217 80 1
218 80 1
219 80 8
220 80 3
221 80 4
222 80 1
223 80 1
224 80 8
225 80 3
228 80 3
229 80 2
230 80 2
231 80 1
232 80 2
233 80 4
234 80 5
235 80 5
236 80 1
237 80 1
238 80 6
239 80 3
240 80 1
241 80 4
243 80 1
244 80 4
245 80 2
246 80 2
248 80 4
249 80 2
250 80 5
